c Random 3-SAT instance at phase transition
c vars=285 clauses=1216 ratio=4.267 seed=2
p cnf 285 1216
24 264 6 0
-195 78 282 0
206 -64 250 0
171 -209 -45 0
-268 -2 -65 0
-144 157 -237 0
192 17 100 0
244 -190 120 0
-181 -254 -203 0
-228 -248 202 0
74 -140 178 0
224 -206 -263 0
-55 -118 -237 0
148 -93 -183 0
283 -176 -2 0
-171 118 -24 0
-202 -98 249 0
16 -40 228 0
241 -230 -203 0
-264 -123 -255 0
170 117 -258 0
-189 -48 50 0
50 90 -261 0
-107 -280 200 0
262 -26 18 0
-16 203 209 0
-134 213 -260 0
-34 31 25 0
162 -186 64 0
-157 -282 183 0
221 30 -105 0
143 256 213 0
-255 -14 236 0
5 -284 -110 0
-78 -9 124 0
-167 -177 20 0
-63 55 92 0
28 -241 -102 0
-38 170 -198 0
-250 173 143 0
131 -240 -201 0
-209 -235 258 0
-281 236 -78 0
-32 -149 154 0
93 -79 43 0
-196 262 -178 0
94 24 279 0
163 156 -257 0
245 -26 216 0
-36 -262 202 0
-232 -252 272 0
-218 -98 -183 0
7 283 176 0
-46 32 80 0
32 9 -88 0
216 -13 97 0
156 215 223 0
170 242 -19 0
-193 266 -10 0
-43 18 -8 0
137 141 179 0
193 105 149 0
65 -125 169 0
-247 -91 231 0
-267 -110 -122 0
-91 -137 80 0
13 -12 -38 0
200 38 -74 0
-105 -243 134 0
233 -90 220 0
257 -112 147 0
-96 -260 -38 0
16 285 274 0
171 270 45 0
-154 -265 98 0
-56 182 256 0
209 108 -193 0
278 154 282 0
-248 -72 -36 0
255 -231 97 0
-162 130 -151 0
-184 130 196 0
58 8 114 0
-271 117 174 0
96 -21 -87 0
-266 152 276 0
-67 -278 -49 0
143 -54 240 0
-164 53 243 0
-192 -259 -228 0
14 237 269 0
285 253 -140 0
-51 -92 -114 0
-193 -120 -223 0
217 -242 -157 0
-211 -66 -90 0
-132 271 -56 0
14 215 -89 0
-108 -128 67 0
235 -144 -171 0
-170 27 243 0
-252 18 50 0
142 -145 -177 0
-10 -111 -281 0
-187 55 -10 0
-89 -140 -233 0
-116 -65 25 0
-191 208 -85 0
-101 23 -76 0
-193 -144 233 0
-67 32 255 0
66 125 8 0
87 -22 -92 0
259 208 285 0
-9 279 79 0
-132 229 45 0
-209 153 4 0
-238 148 -64 0
190 -42 106 0
-260 139 -214 0
111 -160 -234 0
274 147 225 0
-280 133 -29 0
106 -191 204 0
207 267 -140 0
241 -127 19 0
-256 57 147 0
-59 -13 -264 0
-279 242 264 0
-44 -238 -84 0
70 99 140 0
-234 -116 -127 0
-215 -24 220 0
192 -76 -174 0
6 98 -28 0
-163 131 -267 0
164 -40 141 0
-263 124 -55 0
-230 -188 -133 0
150 113 227 0
-49 -59 -72 0
107 56 -111 0
-95 88 -236 0
-101 127 243 0
-50 -91 -198 0
135 -225 125 0
260 148 -80 0
174 173 -196 0
24 260 14 0
93 119 253 0
-98 -107 -90 0
6 -251 -138 0
-230 187 164 0
-145 -190 219 0
-60 -190 48 0
266 -202 -124 0
97 285 272 0
148 -23 -262 0
262 -13 -11 0
74 -40 -187 0
-178 234 -106 0
170 181 -262 0
181 108 -41 0
-32 -74 -182 0
-92 -72 -202 0
221 -151 127 0
207 -261 -148 0
162 121 275 0
218 -161 -189 0
276 -127 187 0
33 -283 125 0
-191 -38 -283 0
-198 1 217 0
261 193 200 0
-18 267 -277 0
-191 -263 54 0
-269 -245 38 0
-147 -107 256 0
-140 -117 -264 0
-40 -45 2 0
135 -219 98 0
-244 -123 -113 0
142 19 62 0
117 -130 -153 0
74 208 -114 0
-112 86 -133 0
-275 -164 58 0
-186 -213 276 0
-240 235 115 0
-125 -135 -157 0
155 -223 -47 0
-241 170 151 0
-14 258 2 0
-276 -282 122 0
177 213 -227 0
-145 112 -15 0
-143 62 18 0
60 -223 251 0
106 -179 177 0
-254 -178 -22 0
-151 -169 -183 0
219 -64 199 0
272 -217 8 0
-210 -239 199 0
34 252 235 0
115 -185 -283 0
-137 -258 155 0
-71 13 -284 0
-65 -115 -89 0
154 -203 230 0
-119 1 -148 0
-229 164 32 0
73 -158 -90 0
201 2 -154 0
-96 214 128 0
-129 -250 -166 0
-111 274 -39 0
127 -272 -262 0
284 -146 -34 0
104 170 -144 0
44 104 -232 0
14 22 251 0
54 -44 -111 0
44 -231 112 0
101 -88 232 0
-207 -122 -136 0
38 -131 14 0
47 -183 247 0
119 -71 77 0
-208 10 -72 0
-237 -258 66 0
199 -36 -9 0
-144 -22 -5 0
-259 1 -199 0
-14 -250 258 0
214 85 141 0
25 17 38 0
-258 -115 -224 0
162 78 -154 0
-253 -37 -222 0
-66 88 -182 0
-120 209 -168 0
133 45 179 0
162 168 -158 0
254 -199 -78 0
25 36 -32 0
278 12 -259 0
-50 -114 232 0
-131 -112 -134 0
51 -11 137 0
177 -95 22 0
230 107 -164 0
21 41 -181 0
-36 270 153 0
32 22 7 0
80 34 203 0
99 18 10 0
-114 -182 -127 0
-256 114 -206 0
173 213 190 0
73 -231 -126 0
109 -238 121 0
104 -166 -134 0
126 -171 23 0
130 66 -29 0
258 -224 -243 0
248 134 88 0
-245 -36 210 0
-111 210 67 0
269 -33 243 0
4 218 199 0
267 -46 14 0
-128 41 233 0
15 110 -143 0
-275 198 1 0
256 101 241 0
-106 173 127 0
-19 -81 123 0
236 -254 -27 0
-142 -135 268 0
101 148 169 0
-29 79 243 0
-92 -12 210 0
-31 -26 167 0
-57 -134 63 0
-256 -47 -175 0
282 -255 -166 0
-7 25 192 0
-149 -271 -45 0
269 -66 -121 0
-20 -140 -22 0
152 -132 147 0
170 -115 -257 0
280 -169 28 0
-230 -4 98 0
-96 -25 92 0
84 219 274 0
-127 -281 -148 0
55 90 184 0
106 -195 -223 0
131 -171 58 0
-43 54 284 0
-273 105 214 0
171 63 -33 0
172 -41 159 0
-30 219 37 0
36 160 130 0
271 68 -90 0
-52 198 244 0
-27 -115 -48 0
-22 -249 167 0
274 -221 62 0
256 -36 -59 0
162 191 129 0
-12 -121 -101 0
21 152 -133 0
-129 117 -273 0
-1 113 37 0
-219 -90 -157 0
31 -61 223 0
170 -192 -202 0
236 91 238 0
17 143 274 0
-31 -119 -88 0
18 185 -200 0
-216 -170 -121 0
-260 -275 -35 0
-214 -18 145 0
79 -264 -205 0
34 -27 -132 0
-228 -251 -97 0
126 -167 183 0
-73 -155 38 0
-20 202 -168 0
217 67 -154 0
25 -262 -264 0
264 -180 -283 0
-2 -156 -226 0
248 63 183 0
222 -260 -240 0
258 -166 247 0
-177 -210 134 0
-201 279 -227 0
-29 16 -126 0
189 -246 197 0
-206 31 -179 0
73 -268 48 0
265 -225 121 0
-239 40 -83 0
-261 275 257 0
-18 -15 -274 0
26 -40 175 0
252 185 -9 0
-124 122 -41 0
4 -282 -263 0
215 -129 119 0
112 17 221 0
-275 -94 -92 0
54 165 259 0
-94 233 -58 0
22 83 -252 0
178 194 -30 0
56 166 -221 0
95 -4 -53 0
87 -220 114 0
-91 -192 243 0
159 274 262 0
145 165 8 0
-180 196 33 0
283 95 272 0
260 215 -136 0
127 -118 249 0
-130 232 -25 0
-116 102 -18 0
-211 275 239 0
180 -49 2 0
269 -203 -205 0
69 -114 230 0
214 -217 75 0
-274 105 -181 0
-13 -52 100 0
-167 277 218 0
258 -264 -6 0
222 77 -231 0
131 269 273 0
250 67 189 0
-153 -179 241 0
-3 18 -106 0
-52 -19 -118 0
155 180 171 0
226 -130 70 0
252 -244 115 0
-157 89 -138 0
84 237 93 0
24 -136 -141 0
207 -140 -261 0
-254 47 -259 0
-126 -130 247 0
-278 158 -51 0
-184 -90 -49 0
-28 -188 261 0
-170 -237 -247 0
-170 -234 250 0
224 -258 -174 0
-248 21 44 0
-62 36 -233 0
-177 -239 -235 0
183 -77 78 0
-215 244 194 0
-254 -26 137 0
173 -221 57 0
53 59 -58 0
-55 -168 256 0
-61 -276 213 0
-165 -220 -69 0
-93 -134 244 0
8 33 -99 0
-94 282 156 0
21 -269 245 0
-38 -146 -186 0
-218 94 -225 0
89 -71 261 0
-73 98 -14 0
133 52 -65 0
-167 -264 -190 0
157 -46 176 0
-193 11 30 0
165 252 -115 0
-176 238 -242 0
183 272 -32 0
144 -125 98 0
-110 84 -31 0
-202 -23 138 0
-165 -241 258 0
-54 -109 -250 0
65 -62 92 0
-206 156 -180 0
54 178 132 0
-267 -123 80 0
102 -223 16 0
-186 256 -77 0
264 -182 -34 0
-17 -12 140 0
267 44 142 0
60 250 53 0
-266 170 135 0
-177 -189 66 0
-210 203 -171 0
-153 -264 -86 0
199 -277 158 0
100 -228 -236 0
-196 20 -29 0
22 57 -6 0
65 -62 221 0
21 -74 -12 0
-282 270 -72 0
160 -106 -216 0
79 -126 17 0
25 275 15 0
-131 35 -138 0
-103 -66 24 0
84 -139 14 0
-17 188 -179 0
207 50 201 0
-10 -259 -123 0
-211 221 27 0
27 -189 -104 0
-223 241 254 0
-167 244 -160 0
-35 58 -257 0
-24 220 -210 0
159 225 46 0
-280 164 -209 0
126 279 -202 0
-142 -162 -12 0
-40 -155 143 0
103 111 175 0
173 125 -182 0
175 -256 -31 0
-217 -27 269 0
242 -49 -194 0
87 -27 -57 0
-60 99 -73 0
-30 -43 -24 0
282 -157 44 0
-47 -243 -33 0
254 48 224 0
-47 249 -205 0
-110 -243 -216 0
-177 280 99 0
-57 161 240 0
-125 -40 12 0
167 -235 -255 0
260 -124 164 0
201 142 151 0
142 126 140 0
23 235 -30 0
-32 -218 16 0
-5 245 -140 0
91 -5 235 0
-151 -259 -22 0
-183 -256 -162 0
40 -54 -25 0
108 -134 211 0
-133 281 -117 0
-248 250 -121 0
-206 -27 -126 0
147 -86 17 0
143 174 -41 0
110 -162 -136 0
103 -254 70 0
22 -51 261 0
183 -133 -99 0
-7 83 -111 0
-156 229 34 0
-22 189 163 0
14 -158 -96 0
-246 -76 235 0
-198 -72 -74 0
-202 -99 231 0
218 -178 37 0
5 145 52 0
-15 4 45 0
-152 -138 281 0
254 283 -63 0
-187 -81 -73 0
-142 82 -143 0
236 247 -134 0
58 142 24 0
-172 -45 68 0
-193 89 107 0
192 -124 202 0
67 -71 42 0
-166 27 150 0
-104 -252 -223 0
-107 181 148 0
188 81 207 0
-100 22 267 0
-255 202 161 0
-36 -82 -125 0
202 216 -2 0
172 -3 92 0
164 98 231 0
183 -56 -8 0
-21 -18 -109 0
138 8 -277 0
114 59 -47 0
154 -139 -124 0
-216 213 32 0
-212 28 167 0
-2 -20 198 0
160 -89 -164 0
-249 -84 207 0
52 18 202 0
-98 -282 -2 0
-153 43 241 0
135 83 -275 0
64 -61 219 0
147 -272 48 0
-36 249 -156 0
-43 -268 145 0
-255 119 -256 0
-283 -124 42 0
-233 37 106 0
19 -244 -100 0
273 95 -138 0
-7 -35 -154 0
-67 184 233 0
-154 -5 -23 0
181 140 -159 0
184 242 -72 0
-85 -214 -248 0
82 -44 191 0
157 125 -71 0
-250 -53 195 0
148 266 -88 0
180 45 77 0
174 138 -262 0
-170 -239 -231 0
223 -54 131 0
15 56 -54 0
21 -89 -184 0
-234 14 -4 0
-28 -240 126 0
-261 263 -127 0
24 -200 -220 0
-253 -70 246 0
-36 183 -279 0
-80 42 75 0
-100 247 -5 0
-226 -5 178 0
206 -15 36 0
-67 -83 -31 0
170 -128 -151 0
8 236 -116 0
202 -3 -99 0
-24 -203 85 0
-273 122 138 0
-168 44 26 0
278 -243 -65 0
39 -95 53 0
-285 -38 -227 0
-178 -135 -262 0
5 107 -22 0
129 155 -105 0
-264 3 -161 0
39 160 -196 0
-278 -113 -57 0
-268 -243 285 0
-70 -53 -115 0
-122 7 217 0
-238 -218 -146 0
-36 -132 -185 0
-234 115 40 0
284 -11 -173 0
73 -21 -224 0
-36 -267 -231 0
-150 118 -22 0
-261 221 -119 0
-35 155 209 0
47 181 -119 0
-89 227 -29 0
-88 -98 -61 0
62 76 136 0
106 -125 90 0
216 -94 -215 0
134 193 43 0
-194 -259 31 0
202 149 -150 0
-57 -133 -98 0
-167 171 -234 0
-12 -144 -266 0
-7 -127 -10 0
244 16 242 0
-254 26 64 0
-160 6 272 0
-39 169 22 0
-90 -151 251 0
-21 119 174 0
60 232 156 0
246 13 -145 0
-180 220 101 0
-35 41 -29 0
125 81 -139 0
137 6 179 0
19 -175 -197 0
-170 266 225 0
194 -220 -61 0
127 -191 -197 0
-71 -257 245 0
-231 -99 -181 0
165 87 92 0
99 -195 87 0
-27 229 -53 0
207 -192 -50 0
139 76 -56 0
-275 24 -154 0
-242 154 279 0
65 231 -115 0
-68 34 -275 0
149 -48 147 0
-63 -240 -151 0
40 -53 3 0
-254 -31 119 0
-268 50 238 0
-16 -166 -279 0
-138 216 10 0
-78 -77 9 0
9 -55 126 0
29 133 -67 0
135 -250 8 0
98 -262 -214 0
-39 30 237 0
101 -151 -123 0
-243 227 -53 0
-252 -124 -21 0
210 -81 -26 0
-236 -283 9 0
30 -174 62 0
79 228 10 0
-191 -195 3 0
-65 -46 -73 0
-154 -22 -99 0
281 247 128 0
-120 128 76 0
196 -156 -144 0
62 268 -53 0
34 -46 62 0
129 57 -237 0
190 68 28 0
-225 199 -71 0
-186 144 158 0
-68 70 -231 0
-121 -283 199 0
234 202 -105 0
172 87 5 0
-13 52 9 0
-131 37 252 0
-209 -102 116 0
134 -88 -191 0
55 -108 103 0
111 208 -283 0
-217 -69 39 0
217 143 -16 0
206 -81 225 0
-16 -111 248 0
223 251 280 0
189 -200 -87 0
-107 119 -34 0
149 213 174 0
5 -18 -157 0
176 -45 -56 0
88 -58 -209 0
-79 17 -14 0
-160 -177 -82 0
-152 -86 -243 0
-80 271 111 0
225 -96 -117 0
36 -146 -137 0
-33 -182 213 0
-142 132 24 0
181 160 255 0
155 264 215 0
-176 -234 -72 0
-34 -103 256 0
36 111 -101 0
245 247 -173 0
60 21 -78 0
-200 19 -183 0
38 54 191 0
61 107 21 0
-284 190 -23 0
-219 123 240 0
196 -141 65 0
238 -156 56 0
80 -72 -4 0
233 -241 -227 0
-211 108 -111 0
-206 177 -153 0
56 30 131 0
159 -46 203 0
193 108 124 0
-136 12 -225 0
-10 148 166 0
-8 170 -140 0
-254 112 -236 0
236 -164 63 0
-131 271 -194 0
147 202 165 0
-41 -18 -66 0
-86 32 -93 0
80 -43 -273 0
-215 157 -64 0
188 -209 127 0
-92 -36 263 0
-8 -5 -117 0
-205 -59 225 0
-201 -257 -221 0
-205 56 -54 0
-80 117 -243 0
165 95 189 0
-107 -71 104 0
66 277 -158 0
67 111 -194 0
-186 69 -195 0
146 -86 252 0
136 133 -17 0
110 -98 -255 0
-62 -237 36 0
125 -94 -273 0
-41 -69 95 0
279 -221 -257 0
40 124 -222 0
-70 -192 -103 0
-184 -13 -269 0
84 -125 -190 0
182 247 -197 0
35 -42 191 0
-218 265 182 0
75 130 259 0
192 257 -163 0
74 245 -105 0
126 228 -259 0
191 -283 -27 0
-223 -110 -275 0
94 -261 -257 0
77 112 69 0
-119 159 187 0
-250 -92 -53 0
-127 -159 -125 0
282 172 93 0
213 -219 244 0
37 -36 168 0
237 47 7 0
138 40 -72 0
-277 166 262 0
68 -255 212 0
-144 155 146 0
-33 -122 -198 0
-261 -247 263 0
-133 -218 83 0
194 255 -9 0
-55 53 199 0
241 -230 220 0
-149 139 -218 0
-13 -37 -185 0
224 -257 -239 0
-114 24 207 0
55 182 285 0
45 41 95 0
-61 -252 5 0
183 34 8 0
278 -263 -96 0
156 164 66 0
-188 -162 107 0
161 259 -13 0
168 227 -35 0
-247 -191 218 0
160 62 -56 0
142 234 198 0
-257 -160 -29 0
244 -8 -205 0
108 12 44 0
-8 109 -32 0
-26 144 -13 0
-111 31 -68 0
64 45 -164 0
-167 -179 24 0
-232 -134 30 0
19 91 -57 0
28 119 86 0
-282 224 -115 0
121 -26 -88 0
4 154 -170 0
-16 -236 -222 0
97 -28 -100 0
-41 113 140 0
-252 -166 -96 0
-259 263 -178 0
210 276 -17 0
-226 -30 -85 0
-132 -270 -235 0
-248 -233 90 0
102 -33 132 0
105 -264 203 0
-45 7 150 0
-283 194 25 0
225 131 50 0
9 -106 210 0
-15 19 -6 0
87 -173 -261 0
-50 -246 223 0
112 -222 -20 0
206 76 -115 0
148 179 280 0
257 69 194 0
-99 -195 -20 0
259 273 -218 0
15 -25 -50 0
171 209 116 0
-15 -208 -193 0
203 -174 232 0
-167 214 243 0
279 188 167 0
103 17 104 0
65 127 -16 0
42 -206 80 0
138 153 -37 0
95 136 210 0
195 -37 -156 0
67 -247 -28 0
-90 -178 1 0
71 -226 -31 0
200 -157 201 0
-32 182 198 0
-218 226 137 0
115 -39 -17 0
166 49 -271 0
230 118 49 0
-159 249 -283 0
-118 -163 -160 0
-34 83 241 0
116 -243 -59 0
235 -281 -99 0
111 131 14 0
-262 -18 -231 0
30 257 74 0
191 61 271 0
-254 108 -23 0
9 -3 66 0
-204 -173 -171 0
-22 -144 -184 0
-138 -143 -178 0
214 103 -70 0
196 125 180 0
-100 185 -74 0
-278 -250 8 0
270 -218 211 0
-231 146 203 0
-67 -138 217 0
-98 -61 -178 0
-150 41 245 0
150 161 130 0
-17 -251 -2 0
70 -251 95 0
-131 -40 174 0
24 -163 195 0
86 -31 135 0
-276 137 -108 0
-125 82 117 0
-274 284 158 0
48 65 -109 0
-54 -32 -150 0
-105 -228 194 0
69 181 -200 0
-223 125 -221 0
-122 13 -156 0
106 -197 86 0
-258 -20 -118 0
104 97 -62 0
239 -85 69 0
152 46 127 0
-159 180 -104 0
-130 -243 107 0
159 -52 -25 0
81 108 200 0
-265 -69 153 0
-195 -199 -32 0
-275 182 148 0
129 55 -111 0
-234 -160 149 0
-89 -139 222 0
-114 -3 -178 0
184 -88 71 0
-231 219 189 0
-285 53 169 0
-244 -177 -243 0
226 203 153 0
139 -215 202 0
-134 128 156 0
112 183 -67 0
-122 -184 117 0
161 -139 257 0
36 213 -202 0
123 41 175 0
55 -159 245 0
-52 -245 66 0
-56 130 -207 0
-279 265 143 0
-258 -5 -217 0
-7 -227 71 0
248 -281 -283 0
276 -133 16 0
-66 -152 -178 0
44 -206 -160 0
-284 72 -160 0
-49 202 -44 0
255 -199 -92 0
-80 210 42 0
94 82 136 0
155 -121 28 0
-105 201 -174 0
-225 -251 88 0
47 -170 -157 0
180 -268 283 0
190 -181 52 0
-84 72 100 0
192 -81 -49 0
-218 -87 -14 0
276 -249 265 0
10 -279 93 0
-200 -238 -194 0
152 149 248 0
-98 -222 -127 0
-145 33 213 0
140 -154 60 0
-155 -242 88 0
207 134 188 0
-156 245 -263 0
-245 -78 -269 0
4 -100 271 0
-113 237 -86 0
254 101 3 0
-90 189 267 0
10 212 -267 0
83 73 44 0
-265 134 205 0
14 -140 21 0
-25 73 -78 0
231 -241 -86 0
18 -3 -133 0
31 -41 -33 0
28 -95 131 0
197 98 138 0
-188 -10 270 0
85 -200 162 0
92 63 -72 0
210 -153 -141 0
-105 174 -281 0
-133 101 32 0
-38 148 193 0
193 -32 -227 0
101 -20 -246 0
-130 144 188 0
35 -163 -13 0
-74 -36 -136 0
248 -238 64 0
-194 224 241 0
236 24 160 0
-234 135 -206 0
-219 221 -271 0
50 146 73 0
-171 190 -28 0
-214 207 -122 0
-227 -285 213 0
-285 173 -159 0
-122 129 -28 0
195 80 -75 0
-37 110 8 0
-275 201 249 0
-264 65 124 0
53 -265 -151 0
197 -48 -102 0
-28 -34 117 0
-193 80 255 0
221 11 -91 0
16 70 -202 0
-112 177 276 0
-281 -238 270 0
248 -37 57 0
-97 25 91 0
-206 268 196 0
-91 -259 -141 0
-77 141 62 0
-72 -98 234 0
-171 12 -211 0
149 31 -107 0
22 184 -178 0
234 -136 190 0
104 -180 -92 0
221 -86 -278 0
-157 -48 62 0
191 -194 179 0
-116 -112 88 0
-195 76 -245 0
-128 -227 195 0
182 63 -8 0
104 -62 181 0
188 120 -44 0
-191 -146 62 0
-181 -188 134 0
-148 -258 -95 0
239 -212 175 0
191 -256 281 0
-54 -166 119 0
-119 -232 -266 0
-69 -95 -167 0
125 283 -248 0
-277 169 -143 0
-167 -242 -139 0
-57 253 -193 0
283 175 228 0
-164 -166 -196 0
168 270 230 0
184 150 -273 0
-247 -45 -176 0
-274 270 -221 0
147 -212 59 0
-3 -116 42 0
35 22 106 0
248 -271 274 0
266 262 40 0
-97 -203 20 0
150 30 179 0
46 248 -112 0
116 -245 -128 0
275 194 -236 0
-209 203 78 0
281 -206 -258 0
-17 68 45 0
-21 80 139 0
-228 -198 -14 0
-111 -268 -70 0
-164 -98 236 0
-203 111 -228 0
-127 -29 -80 0
138 32 256 0
-171 90 -79 0
182 -151 -131 0
245 174 -91 0
-44 190 52 0
247 -9 209 0
-142 -37 -13 0
131 137 -57 0
253 7 -44 0
-136 170 205 0
52 186 56 0
-98 262 -206 0
-188 104 195 0
234 204 208 0
-189 -175 -131 0
-9 106 -166 0
-208 268 145 0
-75 -236 100 0
271 215 43 0
197 -182 -240 0
-7 -253 -87 0
-234 -158 135 0
-71 -73 -93 0
-105 242 128 0
163 -28 -80 0
173 74 194 0
66 173 102 0
-204 -25 -38 0
61 -19 -279 0
-283 -259 -206 0
-204 -149 -57 0
-139 191 -60 0
-18 -235 -58 0
-170 -214 237 0
-236 -285 -158 0
-160 -85 -186 0
175 217 -164 0
173 -143 188 0
-126 259 229 0
-88 249 -24 0
-72 -24 33 0
100 219 10 0
214 -64 277 0
142 216 -132 0
163 -164 -128 0
267 -139 134 0
9 135 140 0
52 -105 254 0
-169 240 -142 0
19 -196 151 0
-42 169 260 0
-140 106 -88 0
8 -197 145 0
-49 193 59 0
-104 151 191 0
-60 -205 -282 0
41 136 208 0
-24 -1 80 0
-269 -66 -157 0
53 39 -178 0
100 121 -241 0
-81 -181 -284 0
142 -136 155 0
220 -250 -175 0
-69 226 211 0
-6 -233 -20 0
51 -285 -251 0
241 98 280 0
229 -7 189 0
162 90 61 0
-152 -169 66 0
-42 -6 -67 0
8 -143 120 0
21 272 -9 0
-59 131 -276 0
258 -77 276 0
-240 117 228 0
-37 -154 -183 0
-14 2 -98 0
278 73 176 0
11 222 161 0
254 79 -53 0
256 -278 261 0
-127 4 -92 0
-187 -181 24 0
-266 120 35 0
-223 -207 -241 0
-213 15 -49 0
155 75 15 0
-211 83 -58 0
42 -54 203 0
-165 -57 122 0
-79 269 -239 0
39 11 83 0
103 -20 186 0
77 82 -165 0
70 -93 212 0
-190 -91 -41 0
-96 -248 211 0
-184 20 -181 0
138 190 -148 0
140 79 -21 0
105 -17 -176 0
126 -132 261 0
74 150 -53 0
279 202 -120 0
82 -47 -279 0
22 -65 69 0
27 -148 -56 0
154 -188 -172 0
15 -112 234 0
-121 22 -130 0
-10 54 119 0
-225 -58 192 0
209 -21 -40 0
119 66 169 0
-209 -172 -45 0
94 -284 -270 0
-49 -270 -80 0
-154 -46 123 0
170 269 -205 0
232 -67 243 0
183 -276 -131 0
168 -24 -218 0
-1 -197 -74 0
-98 -42 279 0
-94 -274 28 0
85 -198 2 0
-211 93 -197 0
-132 101 75 0
