c Feistel cipher key recovery — XOR-heavy crypto benchmark
c block_size=64 key_size=32 rounds=15 seed=42
c plaintext=0x0 key=0x3fad517d ciphertext=0xa24c5747dd6d2773
c vars=2016 clauses=7328
c Expected: SATISFIABLE (key recovery)
p cnf 2016 7328
-97 1 0
-97 65 0
-1 -65 97 0
-98 2 0
-98 66 0
-2 -66 98 0
-99 3 0
-99 67 0
-3 -67 99 0
-100 4 0
-100 68 0
-4 -68 100 0
-101 5 0
-101 69 0
-5 -69 101 0
-102 6 0
-102 70 0
-6 -70 102 0
-103 7 0
-103 71 0
-7 -71 103 0
-104 8 0
-104 72 0
-8 -72 104 0
-105 9 0
-105 73 0
-9 -73 105 0
-106 10 0
-106 74 0
-10 -74 106 0
-107 11 0
-107 75 0
-11 -75 107 0
-108 12 0
-108 76 0
-12 -76 108 0
-109 13 0
-109 77 0
-13 -77 109 0
-110 14 0
-110 78 0
-14 -78 110 0
-111 15 0
-111 79 0
-15 -79 111 0
-112 16 0
-112 80 0
-16 -80 112 0
-113 17 0
-113 81 0
-17 -81 113 0
-114 18 0
-114 82 0
-18 -82 114 0
-115 19 0
-115 83 0
-19 -83 115 0
-116 20 0
-116 84 0
-20 -84 116 0
-117 21 0
-117 85 0
-21 -85 117 0
-118 22 0
-118 86 0
-22 -86 118 0
-119 23 0
-119 87 0
-23 -87 119 0
-120 24 0
-120 88 0
-24 -88 120 0
-121 25 0
-121 89 0
-25 -89 121 0
-122 26 0
-122 90 0
-26 -90 122 0
-123 27 0
-123 91 0
-27 -91 123 0
-124 28 0
-124 92 0
-28 -92 124 0
-125 29 0
-125 93 0
-29 -93 125 0
-126 30 0
-126 94 0
-30 -94 126 0
-127 31 0
-127 95 0
-31 -95 127 0
-128 32 0
-128 96 0
-32 -96 128 0
-97 -30 -129 0
97 30 -129 0
97 -30 129 0
-97 30 129 0
-98 -31 -130 0
98 31 -130 0
98 -31 130 0
-98 31 130 0
-99 -32 -131 0
99 32 -131 0
99 -32 131 0
-99 32 131 0
-100 -1 -132 0
100 1 -132 0
100 -1 132 0
-100 1 132 0
-101 -2 -133 0
101 2 -133 0
101 -2 133 0
-101 2 133 0
-102 -3 -134 0
102 3 -134 0
102 -3 134 0
-102 3 134 0
-103 -4 -135 0
103 4 -135 0
103 -4 135 0
-103 4 135 0
-104 -5 -136 0
104 5 -136 0
104 -5 136 0
-104 5 136 0
-105 -6 -137 0
105 6 -137 0
105 -6 137 0
-105 6 137 0
-106 -7 -138 0
106 7 -138 0
106 -7 138 0
-106 7 138 0
-107 -8 -139 0
107 8 -139 0
107 -8 139 0
-107 8 139 0
-108 -9 -140 0
108 9 -140 0
108 -9 140 0
-108 9 140 0
-109 -10 -141 0
109 10 -141 0
109 -10 141 0
-109 10 141 0
-110 -11 -142 0
110 11 -142 0
110 -11 142 0
-110 11 142 0
-111 -12 -143 0
111 12 -143 0
111 -12 143 0
-111 12 143 0
-112 -13 -144 0
112 13 -144 0
112 -13 144 0
-112 13 144 0
-113 -14 -145 0
113 14 -145 0
113 -14 145 0
-113 14 145 0
-114 -15 -146 0
114 15 -146 0
114 -15 146 0
-114 15 146 0
-115 -16 -147 0
115 16 -147 0
115 -16 147 0
-115 16 147 0
-116 -17 -148 0
116 17 -148 0
116 -17 148 0
-116 17 148 0
-117 -18 -149 0
117 18 -149 0
117 -18 149 0
-117 18 149 0
-118 -19 -150 0
118 19 -150 0
118 -19 150 0
-118 19 150 0
-119 -20 -151 0
119 20 -151 0
119 -20 151 0
-119 20 151 0
-120 -21 -152 0
120 21 -152 0
120 -21 152 0
-120 21 152 0
-121 -22 -153 0
121 22 -153 0
121 -22 153 0
-121 22 153 0
-122 -23 -154 0
122 23 -154 0
122 -23 154 0
-122 23 154 0
-123 -24 -155 0
123 24 -155 0
123 -24 155 0
-123 24 155 0
-124 -25 -156 0
124 25 -156 0
124 -25 156 0
-124 25 156 0
-125 -26 -157 0
125 26 -157 0
125 -26 157 0
-125 26 157 0
-126 -27 -158 0
126 27 -158 0
126 -27 158 0
-126 27 158 0
-127 -28 -159 0
127 28 -159 0
127 -28 159 0
-127 28 159 0
-128 -29 -160 0
128 29 -160 0
128 -29 160 0
-128 29 160 0
-129 -65 -161 0
129 65 -161 0
129 -65 161 0
-129 65 161 0
-130 -66 -162 0
130 66 -162 0
130 -66 162 0
-130 66 162 0
-131 -67 -163 0
131 67 -163 0
131 -67 163 0
-131 67 163 0
-132 -68 -164 0
132 68 -164 0
132 -68 164 0
-132 68 164 0
-133 -69 -165 0
133 69 -165 0
133 -69 165 0
-133 69 165 0
-134 -70 -166 0
134 70 -166 0
134 -70 166 0
-134 70 166 0
-135 -71 -167 0
135 71 -167 0
135 -71 167 0
-135 71 167 0
-136 -72 -168 0
136 72 -168 0
136 -72 168 0
-136 72 168 0
-137 -73 -169 0
137 73 -169 0
137 -73 169 0
-137 73 169 0
-138 -74 -170 0
138 74 -170 0
138 -74 170 0
-138 74 170 0
-139 -75 -171 0
139 75 -171 0
139 -75 171 0
-139 75 171 0
-140 -76 -172 0
140 76 -172 0
140 -76 172 0
-140 76 172 0
-141 -77 -173 0
141 77 -173 0
141 -77 173 0
-141 77 173 0
-142 -78 -174 0
142 78 -174 0
142 -78 174 0
-142 78 174 0
-143 -79 -175 0
143 79 -175 0
143 -79 175 0
-143 79 175 0
-144 -80 -176 0
144 80 -176 0
144 -80 176 0
-144 80 176 0
-145 -81 -177 0
145 81 -177 0
145 -81 177 0
-145 81 177 0
-146 -82 -178 0
146 82 -178 0
146 -82 178 0
-146 82 178 0
-147 -83 -179 0
147 83 -179 0
147 -83 179 0
-147 83 179 0
-148 -84 -180 0
148 84 -180 0
148 -84 180 0
-148 84 180 0
-149 -85 -181 0
149 85 -181 0
149 -85 181 0
-149 85 181 0
-150 -86 -182 0
150 86 -182 0
150 -86 182 0
-150 86 182 0
-151 -87 -183 0
151 87 -183 0
151 -87 183 0
-151 87 183 0
-152 -88 -184 0
152 88 -184 0
152 -88 184 0
-152 88 184 0
-153 -89 -185 0
153 89 -185 0
153 -89 185 0
-153 89 185 0
-154 -90 -186 0
154 90 -186 0
154 -90 186 0
-154 90 186 0
-155 -91 -187 0
155 91 -187 0
155 -91 187 0
-155 91 187 0
-156 -92 -188 0
156 92 -188 0
156 -92 188 0
-156 92 188 0
-157 -93 -189 0
157 93 -189 0
157 -93 189 0
-157 93 189 0
-158 -94 -190 0
158 94 -190 0
158 -94 190 0
-158 94 190 0
-159 -95 -191 0
159 95 -191 0
159 -95 191 0
-159 95 191 0
-160 -96 -192 0
160 96 -192 0
160 -96 192 0
-160 96 192 0
-33 -161 -193 0
33 161 -193 0
33 -161 193 0
-33 161 193 0
-34 -162 -194 0
34 162 -194 0
34 -162 194 0
-34 162 194 0
-35 -163 -195 0
35 163 -195 0
35 -163 195 0
-35 163 195 0
-36 -164 -196 0
36 164 -196 0
36 -164 196 0
-36 164 196 0
-37 -165 -197 0
37 165 -197 0
37 -165 197 0
-37 165 197 0
-38 -166 -198 0
38 166 -198 0
38 -166 198 0
-38 166 198 0
-39 -167 -199 0
39 167 -199 0
39 -167 199 0
-39 167 199 0
-40 -168 -200 0
40 168 -200 0
40 -168 200 0
-40 168 200 0
-41 -169 -201 0
41 169 -201 0
41 -169 201 0
-41 169 201 0
-42 -170 -202 0
42 170 -202 0
42 -170 202 0
-42 170 202 0
-43 -171 -203 0
43 171 -203 0
43 -171 203 0
-43 171 203 0
-44 -172 -204 0
44 172 -204 0
44 -172 204 0
-44 172 204 0
-45 -173 -205 0
45 173 -205 0
45 -173 205 0
-45 173 205 0
-46 -174 -206 0
46 174 -206 0
46 -174 206 0
-46 174 206 0
-47 -175 -207 0
47 175 -207 0
47 -175 207 0
-47 175 207 0
-48 -176 -208 0
48 176 -208 0
48 -176 208 0
-48 176 208 0
-49 -177 -209 0
49 177 -209 0
49 -177 209 0
-49 177 209 0
-50 -178 -210 0
50 178 -210 0
50 -178 210 0
-50 178 210 0
-51 -179 -211 0
51 179 -211 0
51 -179 211 0
-51 179 211 0
-52 -180 -212 0
52 180 -212 0
52 -180 212 0
-52 180 212 0
-53 -181 -213 0
53 181 -213 0
53 -181 213 0
-53 181 213 0
-54 -182 -214 0
54 182 -214 0
54 -182 214 0
-54 182 214 0
-55 -183 -215 0
55 183 -215 0
55 -183 215 0
-55 183 215 0
-56 -184 -216 0
56 184 -216 0
56 -184 216 0
-56 184 216 0
-57 -185 -217 0
57 185 -217 0
57 -185 217 0
-57 185 217 0
-58 -186 -218 0
58 186 -218 0
58 -186 218 0
-58 186 218 0
-59 -187 -219 0
59 187 -219 0
59 -187 219 0
-59 187 219 0
-60 -188 -220 0
60 188 -220 0
60 -188 220 0
-60 188 220 0
-61 -189 -221 0
61 189 -221 0
61 -189 221 0
-61 189 221 0
-62 -190 -222 0
62 190 -222 0
62 -190 222 0
-62 190 222 0
-63 -191 -223 0
63 191 -223 0
63 -191 223 0
-63 191 223 0
-64 -192 -224 0
64 192 -224 0
64 -192 224 0
-64 192 224 0
-225 193 0
-225 94 0
-193 -94 225 0
-226 194 0
-226 95 0
-194 -95 226 0
-227 195 0
-227 96 0
-195 -96 227 0
-228 196 0
-228 65 0
-196 -65 228 0
-229 197 0
-229 66 0
-197 -66 229 0
-230 198 0
-230 67 0
-198 -67 230 0
-231 199 0
-231 68 0
-199 -68 231 0
-232 200 0
-232 69 0
-200 -69 232 0
-233 201 0
-233 70 0
-201 -70 233 0
-234 202 0
-234 71 0
-202 -71 234 0
-235 203 0
-235 72 0
-203 -72 235 0
-236 204 0
-236 73 0
-204 -73 236 0
-237 205 0
-237 74 0
-205 -74 237 0
-238 206 0
-238 75 0
-206 -75 238 0
-239 207 0
-239 76 0
-207 -76 239 0
-240 208 0
-240 77 0
-208 -77 240 0
-241 209 0
-241 78 0
-209 -78 241 0
-242 210 0
-242 79 0
-210 -79 242 0
-243 211 0
-243 80 0
-211 -80 243 0
-244 212 0
-244 81 0
-212 -81 244 0
-245 213 0
-245 82 0
-213 -82 245 0
-246 214 0
-246 83 0
-214 -83 246 0
-247 215 0
-247 84 0
-215 -84 247 0
-248 216 0
-248 85 0
-216 -85 248 0
-249 217 0
-249 86 0
-217 -86 249 0
-250 218 0
-250 87 0
-218 -87 250 0
-251 219 0
-251 88 0
-219 -88 251 0
-252 220 0
-252 89 0
-220 -89 252 0
-253 221 0
-253 90 0
-221 -90 253 0
-254 222 0
-254 91 0
-222 -91 254 0
-255 223 0
-255 92 0
-223 -92 255 0
-256 224 0
-256 93 0
-224 -93 256 0
-225 -222 -257 0
225 222 -257 0
225 -222 257 0
-225 222 257 0
-226 -223 -258 0
226 223 -258 0
226 -223 258 0
-226 223 258 0
-227 -224 -259 0
227 224 -259 0
227 -224 259 0
-227 224 259 0
-228 -193 -260 0
228 193 -260 0
228 -193 260 0
-228 193 260 0
-229 -194 -261 0
229 194 -261 0
229 -194 261 0
-229 194 261 0
-230 -195 -262 0
230 195 -262 0
230 -195 262 0
-230 195 262 0
-231 -196 -263 0
231 196 -263 0
231 -196 263 0
-231 196 263 0
-232 -197 -264 0
232 197 -264 0
232 -197 264 0
-232 197 264 0
-233 -198 -265 0
233 198 -265 0
233 -198 265 0
-233 198 265 0
-234 -199 -266 0
234 199 -266 0
234 -199 266 0
-234 199 266 0
-235 -200 -267 0
235 200 -267 0
235 -200 267 0
-235 200 267 0
-236 -201 -268 0
236 201 -268 0
236 -201 268 0
-236 201 268 0
-237 -202 -269 0
237 202 -269 0
237 -202 269 0
-237 202 269 0
-238 -203 -270 0
238 203 -270 0
238 -203 270 0
-238 203 270 0
-239 -204 -271 0
239 204 -271 0
239 -204 271 0
-239 204 271 0
-240 -205 -272 0
240 205 -272 0
240 -205 272 0
-240 205 272 0
-241 -206 -273 0
241 206 -273 0
241 -206 273 0
-241 206 273 0
-242 -207 -274 0
242 207 -274 0
242 -207 274 0
-242 207 274 0
-243 -208 -275 0
243 208 -275 0
243 -208 275 0
-243 208 275 0
-244 -209 -276 0
244 209 -276 0
244 -209 276 0
-244 209 276 0
-245 -210 -277 0
245 210 -277 0
245 -210 277 0
-245 210 277 0
-246 -211 -278 0
246 211 -278 0
246 -211 278 0
-246 211 278 0
-247 -212 -279 0
247 212 -279 0
247 -212 279 0
-247 212 279 0
-248 -213 -280 0
248 213 -280 0
248 -213 280 0
-248 213 280 0
-249 -214 -281 0
249 214 -281 0
249 -214 281 0
-249 214 281 0
-250 -215 -282 0
250 215 -282 0
250 -215 282 0
-250 215 282 0
-251 -216 -283 0
251 216 -283 0
251 -216 283 0
-251 216 283 0
-252 -217 -284 0
252 217 -284 0
252 -217 284 0
-252 217 284 0
-253 -218 -285 0
253 218 -285 0
253 -218 285 0
-253 218 285 0
-254 -219 -286 0
254 219 -286 0
254 -219 286 0
-254 219 286 0
-255 -220 -287 0
255 220 -287 0
255 -220 287 0
-255 220 287 0
-256 -221 -288 0
256 221 -288 0
256 -221 288 0
-256 221 288 0
-257 -94 -289 0
257 94 -289 0
257 -94 289 0
-257 94 289 0
-258 -95 -290 0
258 95 -290 0
258 -95 290 0
-258 95 290 0
-259 -96 -291 0
259 96 -291 0
259 -96 291 0
-259 96 291 0
-260 -65 -292 0
260 65 -292 0
260 -65 292 0
-260 65 292 0
-261 -66 -293 0
261 66 -293 0
261 -66 293 0
-261 66 293 0
-262 -67 -294 0
262 67 -294 0
262 -67 294 0
-262 67 294 0
-263 -68 -295 0
263 68 -295 0
263 -68 295 0
-263 68 295 0
-264 -69 -296 0
264 69 -296 0
264 -69 296 0
-264 69 296 0
-265 -70 -297 0
265 70 -297 0
265 -70 297 0
-265 70 297 0
-266 -71 -298 0
266 71 -298 0
266 -71 298 0
-266 71 298 0
-267 -72 -299 0
267 72 -299 0
267 -72 299 0
-267 72 299 0
-268 -73 -300 0
268 73 -300 0
268 -73 300 0
-268 73 300 0
-269 -74 -301 0
269 74 -301 0
269 -74 301 0
-269 74 301 0
-270 -75 -302 0
270 75 -302 0
270 -75 302 0
-270 75 302 0
-271 -76 -303 0
271 76 -303 0
271 -76 303 0
-271 76 303 0
-272 -77 -304 0
272 77 -304 0
272 -77 304 0
-272 77 304 0
-273 -78 -305 0
273 78 -305 0
273 -78 305 0
-273 78 305 0
-274 -79 -306 0
274 79 -306 0
274 -79 306 0
-274 79 306 0
-275 -80 -307 0
275 80 -307 0
275 -80 307 0
-275 80 307 0
-276 -81 -308 0
276 81 -308 0
276 -81 308 0
-276 81 308 0
-277 -82 -309 0
277 82 -309 0
277 -82 309 0
-277 82 309 0
-278 -83 -310 0
278 83 -310 0
278 -83 310 0
-278 83 310 0
-279 -84 -311 0
279 84 -311 0
279 -84 311 0
-279 84 311 0
-280 -85 -312 0
280 85 -312 0
280 -85 312 0
-280 85 312 0
-281 -86 -313 0
281 86 -313 0
281 -86 313 0
-281 86 313 0
-282 -87 -314 0
282 87 -314 0
282 -87 314 0
-282 87 314 0
-283 -88 -315 0
283 88 -315 0
283 -88 315 0
-283 88 315 0
-284 -89 -316 0
284 89 -316 0
284 -89 316 0
-284 89 316 0
-285 -90 -317 0
285 90 -317 0
285 -90 317 0
-285 90 317 0
-286 -91 -318 0
286 91 -318 0
286 -91 318 0
-286 91 318 0
-287 -92 -319 0
287 92 -319 0
287 -92 319 0
-287 92 319 0
-288 -93 -320 0
288 93 -320 0
288 -93 320 0
-288 93 320 0
-1 -289 -321 0
1 289 -321 0
1 -289 321 0
-1 289 321 0
-2 -290 -322 0
2 290 -322 0
2 -290 322 0
-2 290 322 0
-3 -291 -323 0
3 291 -323 0
3 -291 323 0
-3 291 323 0
-4 -292 -324 0
4 292 -324 0
4 -292 324 0
-4 292 324 0
-5 -293 -325 0
5 293 -325 0
5 -293 325 0
-5 293 325 0
-6 -294 -326 0
6 294 -326 0
6 -294 326 0
-6 294 326 0
-7 -295 -327 0
7 295 -327 0
7 -295 327 0
-7 295 327 0
-8 -296 -328 0
8 296 -328 0
8 -296 328 0
-8 296 328 0
-9 -297 -329 0
9 297 -329 0
9 -297 329 0
-9 297 329 0
-10 -298 -330 0
10 298 -330 0
10 -298 330 0
-10 298 330 0
-11 -299 -331 0
11 299 -331 0
11 -299 331 0
-11 299 331 0
-12 -300 -332 0
12 300 -332 0
12 -300 332 0
-12 300 332 0
-13 -301 -333 0
13 301 -333 0
13 -301 333 0
-13 301 333 0
-14 -302 -334 0
14 302 -334 0
14 -302 334 0
-14 302 334 0
-15 -303 -335 0
15 303 -335 0
15 -303 335 0
-15 303 335 0
-16 -304 -336 0
16 304 -336 0
16 -304 336 0
-16 304 336 0
-17 -305 -337 0
17 305 -337 0
17 -305 337 0
-17 305 337 0
-18 -306 -338 0
18 306 -338 0
18 -306 338 0
-18 306 338 0
-19 -307 -339 0
19 307 -339 0
19 -307 339 0
-19 307 339 0
-20 -308 -340 0
20 308 -340 0
20 -308 340 0
-20 308 340 0
-21 -309 -341 0
21 309 -341 0
21 -309 341 0
-21 309 341 0
-22 -310 -342 0
22 310 -342 0
22 -310 342 0
-22 310 342 0
-23 -311 -343 0
23 311 -343 0
23 -311 343 0
-23 311 343 0
-24 -312 -344 0
24 312 -344 0
24 -312 344 0
-24 312 344 0
-25 -313 -345 0
25 313 -345 0
25 -313 345 0
-25 313 345 0
-26 -314 -346 0
26 314 -346 0
26 -314 346 0
-26 314 346 0
-27 -315 -347 0
27 315 -347 0
27 -315 347 0
-27 315 347 0
-28 -316 -348 0
28 316 -348 0
28 -316 348 0
-28 316 348 0
-29 -317 -349 0
29 317 -349 0
29 -317 349 0
-29 317 349 0
-30 -318 -350 0
30 318 -350 0
30 -318 350 0
-30 318 350 0
-31 -319 -351 0
31 319 -351 0
31 -319 351 0
-31 319 351 0
-32 -320 -352 0
32 320 -352 0
32 -320 352 0
-32 320 352 0
-353 321 0
-353 91 0
-321 -91 353 0
-354 322 0
-354 92 0
-322 -92 354 0
-355 323 0
-355 93 0
-323 -93 355 0
-356 324 0
-356 94 0
-324 -94 356 0
-357 325 0
-357 95 0
-325 -95 357 0
-358 326 0
-358 96 0
-326 -96 358 0
-359 327 0
-359 65 0
-327 -65 359 0
-360 328 0
-360 66 0
-328 -66 360 0
-361 329 0
-361 67 0
-329 -67 361 0
-362 330 0
-362 68 0
-330 -68 362 0
-363 331 0
-363 69 0
-331 -69 363 0
-364 332 0
-364 70 0
-332 -70 364 0
-365 333 0
-365 71 0
-333 -71 365 0
-366 334 0
-366 72 0
-334 -72 366 0
-367 335 0
-367 73 0
-335 -73 367 0
-368 336 0
-368 74 0
-336 -74 368 0
-369 337 0
-369 75 0
-337 -75 369 0
-370 338 0
-370 76 0
-338 -76 370 0
-371 339 0
-371 77 0
-339 -77 371 0
-372 340 0
-372 78 0
-340 -78 372 0
-373 341 0
-373 79 0
-341 -79 373 0
-374 342 0
-374 80 0
-342 -80 374 0
-375 343 0
-375 81 0
-343 -81 375 0
-376 344 0
-376 82 0
-344 -82 376 0
-377 345 0
-377 83 0
-345 -83 377 0
-378 346 0
-378 84 0
-346 -84 378 0
-379 347 0
-379 85 0
-347 -85 379 0
-380 348 0
-380 86 0
-348 -86 380 0
-381 349 0
-381 87 0
-349 -87 381 0
-382 350 0
-382 88 0
-350 -88 382 0
-383 351 0
-383 89 0
-351 -89 383 0
-384 352 0
-384 90 0
-352 -90 384 0
-353 -350 -385 0
353 350 -385 0
353 -350 385 0
-353 350 385 0
-354 -351 -386 0
354 351 -386 0
354 -351 386 0
-354 351 386 0
-355 -352 -387 0
355 352 -387 0
355 -352 387 0
-355 352 387 0
-356 -321 -388 0
356 321 -388 0
356 -321 388 0
-356 321 388 0
-357 -322 -389 0
357 322 -389 0
357 -322 389 0
-357 322 389 0
-358 -323 -390 0
358 323 -390 0
358 -323 390 0
-358 323 390 0
-359 -324 -391 0
359 324 -391 0
359 -324 391 0
-359 324 391 0
-360 -325 -392 0
360 325 -392 0
360 -325 392 0
-360 325 392 0
-361 -326 -393 0
361 326 -393 0
361 -326 393 0
-361 326 393 0
-362 -327 -394 0
362 327 -394 0
362 -327 394 0
-362 327 394 0
-363 -328 -395 0
363 328 -395 0
363 -328 395 0
-363 328 395 0
-364 -329 -396 0
364 329 -396 0
364 -329 396 0
-364 329 396 0
-365 -330 -397 0
365 330 -397 0
365 -330 397 0
-365 330 397 0
-366 -331 -398 0
366 331 -398 0
366 -331 398 0
-366 331 398 0
-367 -332 -399 0
367 332 -399 0
367 -332 399 0
-367 332 399 0
-368 -333 -400 0
368 333 -400 0
368 -333 400 0
-368 333 400 0
-369 -334 -401 0
369 334 -401 0
369 -334 401 0
-369 334 401 0
-370 -335 -402 0
370 335 -402 0
370 -335 402 0
-370 335 402 0
-371 -336 -403 0
371 336 -403 0
371 -336 403 0
-371 336 403 0
-372 -337 -404 0
372 337 -404 0
372 -337 404 0
-372 337 404 0
-373 -338 -405 0
373 338 -405 0
373 -338 405 0
-373 338 405 0
-374 -339 -406 0
374 339 -406 0
374 -339 406 0
-374 339 406 0
-375 -340 -407 0
375 340 -407 0
375 -340 407 0
-375 340 407 0
-376 -341 -408 0
376 341 -408 0
376 -341 408 0
-376 341 408 0
-377 -342 -409 0
377 342 -409 0
377 -342 409 0
-377 342 409 0
-378 -343 -410 0
378 343 -410 0
378 -343 410 0
-378 343 410 0
-379 -344 -411 0
379 344 -411 0
379 -344 411 0
-379 344 411 0
-380 -345 -412 0
380 345 -412 0
380 -345 412 0
-380 345 412 0
-381 -346 -413 0
381 346 -413 0
381 -346 413 0
-381 346 413 0
-382 -347 -414 0
382 347 -414 0
382 -347 414 0
-382 347 414 0
-383 -348 -415 0
383 348 -415 0
383 -348 415 0
-383 348 415 0
-384 -349 -416 0
384 349 -416 0
384 -349 416 0
-384 349 416 0
-385 -91 -417 0
385 91 -417 0
385 -91 417 0
-385 91 417 0
-386 -92 -418 0
386 92 -418 0
386 -92 418 0
-386 92 418 0
-387 -93 -419 0
387 93 -419 0
387 -93 419 0
-387 93 419 0
-388 -94 -420 0
388 94 -420 0
388 -94 420 0
-388 94 420 0
-389 -95 -421 0
389 95 -421 0
389 -95 421 0
-389 95 421 0
-390 -96 -422 0
390 96 -422 0
390 -96 422 0
-390 96 422 0
-391 -65 -423 0
391 65 -423 0
391 -65 423 0
-391 65 423 0
-392 -66 -424 0
392 66 -424 0
392 -66 424 0
-392 66 424 0
-393 -67 -425 0
393 67 -425 0
393 -67 425 0
-393 67 425 0
-394 -68 -426 0
394 68 -426 0
394 -68 426 0
-394 68 426 0
-395 -69 -427 0
395 69 -427 0
395 -69 427 0
-395 69 427 0
-396 -70 -428 0
396 70 -428 0
396 -70 428 0
-396 70 428 0
-397 -71 -429 0
397 71 -429 0
397 -71 429 0
-397 71 429 0
-398 -72 -430 0
398 72 -430 0
398 -72 430 0
-398 72 430 0
-399 -73 -431 0
399 73 -431 0
399 -73 431 0
-399 73 431 0
-400 -74 -432 0
400 74 -432 0
400 -74 432 0
-400 74 432 0
-401 -75 -433 0
401 75 -433 0
401 -75 433 0
-401 75 433 0
-402 -76 -434 0
402 76 -434 0
402 -76 434 0
-402 76 434 0
-403 -77 -435 0
403 77 -435 0
403 -77 435 0
-403 77 435 0
-404 -78 -436 0
404 78 -436 0
404 -78 436 0
-404 78 436 0
-405 -79 -437 0
405 79 -437 0
405 -79 437 0
-405 79 437 0
-406 -80 -438 0
406 80 -438 0
406 -80 438 0
-406 80 438 0
-407 -81 -439 0
407 81 -439 0
407 -81 439 0
-407 81 439 0
-408 -82 -440 0
408 82 -440 0
408 -82 440 0
-408 82 440 0
-409 -83 -441 0
409 83 -441 0
409 -83 441 0
-409 83 441 0
-410 -84 -442 0
410 84 -442 0
410 -84 442 0
-410 84 442 0
-411 -85 -443 0
411 85 -443 0
411 -85 443 0
-411 85 443 0
-412 -86 -444 0
412 86 -444 0
412 -86 444 0
-412 86 444 0
-413 -87 -445 0
413 87 -445 0
413 -87 445 0
-413 87 445 0
-414 -88 -446 0
414 88 -446 0
414 -88 446 0
-414 88 446 0
-415 -89 -447 0
415 89 -447 0
415 -89 447 0
-415 89 447 0
-416 -90 -448 0
416 90 -448 0
416 -90 448 0
-416 90 448 0
-193 -417 -449 0
193 417 -449 0
193 -417 449 0
-193 417 449 0
-194 -418 -450 0
194 418 -450 0
194 -418 450 0
-194 418 450 0
-195 -419 -451 0
195 419 -451 0
195 -419 451 0
-195 419 451 0
-196 -420 -452 0
196 420 -452 0
196 -420 452 0
-196 420 452 0
-197 -421 -453 0
197 421 -453 0
197 -421 453 0
-197 421 453 0
-198 -422 -454 0
198 422 -454 0
198 -422 454 0
-198 422 454 0
-199 -423 -455 0
199 423 -455 0
199 -423 455 0
-199 423 455 0
-200 -424 -456 0
200 424 -456 0
200 -424 456 0
-200 424 456 0
-201 -425 -457 0
201 425 -457 0
201 -425 457 0
-201 425 457 0
-202 -426 -458 0
202 426 -458 0
202 -426 458 0
-202 426 458 0
-203 -427 -459 0
203 427 -459 0
203 -427 459 0
-203 427 459 0
-204 -428 -460 0
204 428 -460 0
204 -428 460 0
-204 428 460 0
-205 -429 -461 0
205 429 -461 0
205 -429 461 0
-205 429 461 0
-206 -430 -462 0
206 430 -462 0
206 -430 462 0
-206 430 462 0
-207 -431 -463 0
207 431 -463 0
207 -431 463 0
-207 431 463 0
-208 -432 -464 0
208 432 -464 0
208 -432 464 0
-208 432 464 0
-209 -433 -465 0
209 433 -465 0
209 -433 465 0
-209 433 465 0
-210 -434 -466 0
210 434 -466 0
210 -434 466 0
-210 434 466 0
-211 -435 -467 0
211 435 -467 0
211 -435 467 0
-211 435 467 0
-212 -436 -468 0
212 436 -468 0
212 -436 468 0
-212 436 468 0
-213 -437 -469 0
213 437 -469 0
213 -437 469 0
-213 437 469 0
-214 -438 -470 0
214 438 -470 0
214 -438 470 0
-214 438 470 0
-215 -439 -471 0
215 439 -471 0
215 -439 471 0
-215 439 471 0
-216 -440 -472 0
216 440 -472 0
216 -440 472 0
-216 440 472 0
-217 -441 -473 0
217 441 -473 0
217 -441 473 0
-217 441 473 0
-218 -442 -474 0
218 442 -474 0
218 -442 474 0
-218 442 474 0
-219 -443 -475 0
219 443 -475 0
219 -443 475 0
-219 443 475 0
-220 -444 -476 0
220 444 -476 0
220 -444 476 0
-220 444 476 0
-221 -445 -477 0
221 445 -477 0
221 -445 477 0
-221 445 477 0
-222 -446 -478 0
222 446 -478 0
222 -446 478 0
-222 446 478 0
-223 -447 -479 0
223 447 -479 0
223 -447 479 0
-223 447 479 0
-224 -448 -480 0
224 448 -480 0
224 -448 480 0
-224 448 480 0
-481 449 0
-481 88 0
-449 -88 481 0
-482 450 0
-482 89 0
-450 -89 482 0
-483 451 0
-483 90 0
-451 -90 483 0
-484 452 0
-484 91 0
-452 -91 484 0
-485 453 0
-485 92 0
-453 -92 485 0
-486 454 0
-486 93 0
-454 -93 486 0
-487 455 0
-487 94 0
-455 -94 487 0
-488 456 0
-488 95 0
-456 -95 488 0
-489 457 0
-489 96 0
-457 -96 489 0
-490 458 0
-490 65 0
-458 -65 490 0
-491 459 0
-491 66 0
-459 -66 491 0
-492 460 0
-492 67 0
-460 -67 492 0
-493 461 0
-493 68 0
-461 -68 493 0
-494 462 0
-494 69 0
-462 -69 494 0
-495 463 0
-495 70 0
-463 -70 495 0
-496 464 0
-496 71 0
-464 -71 496 0
-497 465 0
-497 72 0
-465 -72 497 0
-498 466 0
-498 73 0
-466 -73 498 0
-499 467 0
-499 74 0
-467 -74 499 0
-500 468 0
-500 75 0
-468 -75 500 0
-501 469 0
-501 76 0
-469 -76 501 0
-502 470 0
-502 77 0
-470 -77 502 0
-503 471 0
-503 78 0
-471 -78 503 0
-504 472 0
-504 79 0
-472 -79 504 0
-505 473 0
-505 80 0
-473 -80 505 0
-506 474 0
-506 81 0
-474 -81 506 0
-507 475 0
-507 82 0
-475 -82 507 0
-508 476 0
-508 83 0
-476 -83 508 0
-509 477 0
-509 84 0
-477 -84 509 0
-510 478 0
-510 85 0
-478 -85 510 0
-511 479 0
-511 86 0
-479 -86 511 0
-512 480 0
-512 87 0
-480 -87 512 0
-481 -478 -513 0
481 478 -513 0
481 -478 513 0
-481 478 513 0
-482 -479 -514 0
482 479 -514 0
482 -479 514 0
-482 479 514 0
-483 -480 -515 0
483 480 -515 0
483 -480 515 0
-483 480 515 0
-484 -449 -516 0
484 449 -516 0
484 -449 516 0
-484 449 516 0
-485 -450 -517 0
485 450 -517 0
485 -450 517 0
-485 450 517 0
-486 -451 -518 0
486 451 -518 0
486 -451 518 0
-486 451 518 0
-487 -452 -519 0
487 452 -519 0
487 -452 519 0
-487 452 519 0
-488 -453 -520 0
488 453 -520 0
488 -453 520 0
-488 453 520 0
-489 -454 -521 0
489 454 -521 0
489 -454 521 0
-489 454 521 0
-490 -455 -522 0
490 455 -522 0
490 -455 522 0
-490 455 522 0
-491 -456 -523 0
491 456 -523 0
491 -456 523 0
-491 456 523 0
-492 -457 -524 0
492 457 -524 0
492 -457 524 0
-492 457 524 0
-493 -458 -525 0
493 458 -525 0
493 -458 525 0
-493 458 525 0
-494 -459 -526 0
494 459 -526 0
494 -459 526 0
-494 459 526 0
-495 -460 -527 0
495 460 -527 0
495 -460 527 0
-495 460 527 0
-496 -461 -528 0
496 461 -528 0
496 -461 528 0
-496 461 528 0
-497 -462 -529 0
497 462 -529 0
497 -462 529 0
-497 462 529 0
-498 -463 -530 0
498 463 -530 0
498 -463 530 0
-498 463 530 0
-499 -464 -531 0
499 464 -531 0
499 -464 531 0
-499 464 531 0
-500 -465 -532 0
500 465 -532 0
500 -465 532 0
-500 465 532 0
-501 -466 -533 0
501 466 -533 0
501 -466 533 0
-501 466 533 0
-502 -467 -534 0
502 467 -534 0
502 -467 534 0
-502 467 534 0
-503 -468 -535 0
503 468 -535 0
503 -468 535 0
-503 468 535 0
-504 -469 -536 0
504 469 -536 0
504 -469 536 0
-504 469 536 0
-505 -470 -537 0
505 470 -537 0
505 -470 537 0
-505 470 537 0
-506 -471 -538 0
506 471 -538 0
506 -471 538 0
-506 471 538 0
-507 -472 -539 0
507 472 -539 0
507 -472 539 0
-507 472 539 0
-508 -473 -540 0
508 473 -540 0
508 -473 540 0
-508 473 540 0
-509 -474 -541 0
509 474 -541 0
509 -474 541 0
-509 474 541 0
-510 -475 -542 0
510 475 -542 0
510 -475 542 0
-510 475 542 0
-511 -476 -543 0
511 476 -543 0
511 -476 543 0
-511 476 543 0
-512 -477 -544 0
512 477 -544 0
512 -477 544 0
-512 477 544 0
-513 -88 -545 0
513 88 -545 0
513 -88 545 0
-513 88 545 0
-514 -89 -546 0
514 89 -546 0
514 -89 546 0
-514 89 546 0
-515 -90 -547 0
515 90 -547 0
515 -90 547 0
-515 90 547 0
-516 -91 -548 0
516 91 -548 0
516 -91 548 0
-516 91 548 0
-517 -92 -549 0
517 92 -549 0
517 -92 549 0
-517 92 549 0
-518 -93 -550 0
518 93 -550 0
518 -93 550 0
-518 93 550 0
-519 -94 -551 0
519 94 -551 0
519 -94 551 0
-519 94 551 0
-520 -95 -552 0
520 95 -552 0
520 -95 552 0
-520 95 552 0
-521 -96 -553 0
521 96 -553 0
521 -96 553 0
-521 96 553 0
-522 -65 -554 0
522 65 -554 0
522 -65 554 0
-522 65 554 0
-523 -66 -555 0
523 66 -555 0
523 -66 555 0
-523 66 555 0
-524 -67 -556 0
524 67 -556 0
524 -67 556 0
-524 67 556 0
-525 -68 -557 0
525 68 -557 0
525 -68 557 0
-525 68 557 0
-526 -69 -558 0
526 69 -558 0
526 -69 558 0
-526 69 558 0
-527 -70 -559 0
527 70 -559 0
527 -70 559 0
-527 70 559 0
-528 -71 -560 0
528 71 -560 0
528 -71 560 0
-528 71 560 0
-529 -72 -561 0
529 72 -561 0
529 -72 561 0
-529 72 561 0
-530 -73 -562 0
530 73 -562 0
530 -73 562 0
-530 73 562 0
-531 -74 -563 0
531 74 -563 0
531 -74 563 0
-531 74 563 0
-532 -75 -564 0
532 75 -564 0
532 -75 564 0
-532 75 564 0
-533 -76 -565 0
533 76 -565 0
533 -76 565 0
-533 76 565 0
-534 -77 -566 0
534 77 -566 0
534 -77 566 0
-534 77 566 0
-535 -78 -567 0
535 78 -567 0
535 -78 567 0
-535 78 567 0
-536 -79 -568 0
536 79 -568 0
536 -79 568 0
-536 79 568 0
-537 -80 -569 0
537 80 -569 0
537 -80 569 0
-537 80 569 0
-538 -81 -570 0
538 81 -570 0
538 -81 570 0
-538 81 570 0
-539 -82 -571 0
539 82 -571 0
539 -82 571 0
-539 82 571 0
-540 -83 -572 0
540 83 -572 0
540 -83 572 0
-540 83 572 0
-541 -84 -573 0
541 84 -573 0
541 -84 573 0
-541 84 573 0
-542 -85 -574 0
542 85 -574 0
542 -85 574 0
-542 85 574 0
-543 -86 -575 0
543 86 -575 0
543 -86 575 0
-543 86 575 0
-544 -87 -576 0
544 87 -576 0
544 -87 576 0
-544 87 576 0
-321 -545 -577 0
321 545 -577 0
321 -545 577 0
-321 545 577 0
-322 -546 -578 0
322 546 -578 0
322 -546 578 0
-322 546 578 0
-323 -547 -579 0
323 547 -579 0
323 -547 579 0
-323 547 579 0
-324 -548 -580 0
324 548 -580 0
324 -548 580 0
-324 548 580 0
-325 -549 -581 0
325 549 -581 0
325 -549 581 0
-325 549 581 0
-326 -550 -582 0
326 550 -582 0
326 -550 582 0
-326 550 582 0
-327 -551 -583 0
327 551 -583 0
327 -551 583 0
-327 551 583 0
-328 -552 -584 0
328 552 -584 0
328 -552 584 0
-328 552 584 0
-329 -553 -585 0
329 553 -585 0
329 -553 585 0
-329 553 585 0
-330 -554 -586 0
330 554 -586 0
330 -554 586 0
-330 554 586 0
-331 -555 -587 0
331 555 -587 0
331 -555 587 0
-331 555 587 0
-332 -556 -588 0
332 556 -588 0
332 -556 588 0
-332 556 588 0
-333 -557 -589 0
333 557 -589 0
333 -557 589 0
-333 557 589 0
-334 -558 -590 0
334 558 -590 0
334 -558 590 0
-334 558 590 0
-335 -559 -591 0
335 559 -591 0
335 -559 591 0
-335 559 591 0
-336 -560 -592 0
336 560 -592 0
336 -560 592 0
-336 560 592 0
-337 -561 -593 0
337 561 -593 0
337 -561 593 0
-337 561 593 0
-338 -562 -594 0
338 562 -594 0
338 -562 594 0
-338 562 594 0
-339 -563 -595 0
339 563 -595 0
339 -563 595 0
-339 563 595 0
-340 -564 -596 0
340 564 -596 0
340 -564 596 0
-340 564 596 0
-341 -565 -597 0
341 565 -597 0
341 -565 597 0
-341 565 597 0
-342 -566 -598 0
342 566 -598 0
342 -566 598 0
-342 566 598 0
-343 -567 -599 0
343 567 -599 0
343 -567 599 0
-343 567 599 0
-344 -568 -600 0
344 568 -600 0
344 -568 600 0
-344 568 600 0
-345 -569 -601 0
345 569 -601 0
345 -569 601 0
-345 569 601 0
-346 -570 -602 0
346 570 -602 0
346 -570 602 0
-346 570 602 0
-347 -571 -603 0
347 571 -603 0
347 -571 603 0
-347 571 603 0
-348 -572 -604 0
348 572 -604 0
348 -572 604 0
-348 572 604 0
-349 -573 -605 0
349 573 -605 0
349 -573 605 0
-349 573 605 0
-350 -574 -606 0
350 574 -606 0
350 -574 606 0
-350 574 606 0
-351 -575 -607 0
351 575 -607 0
351 -575 607 0
-351 575 607 0
-352 -576 -608 0
352 576 -608 0
352 -576 608 0
-352 576 608 0
-609 577 0
-609 85 0
-577 -85 609 0
-610 578 0
-610 86 0
-578 -86 610 0
-611 579 0
-611 87 0
-579 -87 611 0
-612 580 0
-612 88 0
-580 -88 612 0
-613 581 0
-613 89 0
-581 -89 613 0
-614 582 0
-614 90 0
-582 -90 614 0
-615 583 0
-615 91 0
-583 -91 615 0
-616 584 0
-616 92 0
-584 -92 616 0
-617 585 0
-617 93 0
-585 -93 617 0
-618 586 0
-618 94 0
-586 -94 618 0
-619 587 0
-619 95 0
-587 -95 619 0
-620 588 0
-620 96 0
-588 -96 620 0
-621 589 0
-621 65 0
-589 -65 621 0
-622 590 0
-622 66 0
-590 -66 622 0
-623 591 0
-623 67 0
-591 -67 623 0
-624 592 0
-624 68 0
-592 -68 624 0
-625 593 0
-625 69 0
-593 -69 625 0
-626 594 0
-626 70 0
-594 -70 626 0
-627 595 0
-627 71 0
-595 -71 627 0
-628 596 0
-628 72 0
-596 -72 628 0
-629 597 0
-629 73 0
-597 -73 629 0
-630 598 0
-630 74 0
-598 -74 630 0
-631 599 0
-631 75 0
-599 -75 631 0
-632 600 0
-632 76 0
-600 -76 632 0
-633 601 0
-633 77 0
-601 -77 633 0
-634 602 0
-634 78 0
-602 -78 634 0
-635 603 0
-635 79 0
-603 -79 635 0
-636 604 0
-636 80 0
-604 -80 636 0
-637 605 0
-637 81 0
-605 -81 637 0
-638 606 0
-638 82 0
-606 -82 638 0
-639 607 0
-639 83 0
-607 -83 639 0
-640 608 0
-640 84 0
-608 -84 640 0
-609 -606 -641 0
609 606 -641 0
609 -606 641 0
-609 606 641 0
-610 -607 -642 0
610 607 -642 0
610 -607 642 0
-610 607 642 0
-611 -608 -643 0
611 608 -643 0
611 -608 643 0
-611 608 643 0
-612 -577 -644 0
612 577 -644 0
612 -577 644 0
-612 577 644 0
-613 -578 -645 0
613 578 -645 0
613 -578 645 0
-613 578 645 0
-614 -579 -646 0
614 579 -646 0
614 -579 646 0
-614 579 646 0
-615 -580 -647 0
615 580 -647 0
615 -580 647 0
-615 580 647 0
-616 -581 -648 0
616 581 -648 0
616 -581 648 0
-616 581 648 0
-617 -582 -649 0
617 582 -649 0
617 -582 649 0
-617 582 649 0
-618 -583 -650 0
618 583 -650 0
618 -583 650 0
-618 583 650 0
-619 -584 -651 0
619 584 -651 0
619 -584 651 0
-619 584 651 0
-620 -585 -652 0
620 585 -652 0
620 -585 652 0
-620 585 652 0
-621 -586 -653 0
621 586 -653 0
621 -586 653 0
-621 586 653 0
-622 -587 -654 0
622 587 -654 0
622 -587 654 0
-622 587 654 0
-623 -588 -655 0
623 588 -655 0
623 -588 655 0
-623 588 655 0
-624 -589 -656 0
624 589 -656 0
624 -589 656 0
-624 589 656 0
-625 -590 -657 0
625 590 -657 0
625 -590 657 0
-625 590 657 0
-626 -591 -658 0
626 591 -658 0
626 -591 658 0
-626 591 658 0
-627 -592 -659 0
627 592 -659 0
627 -592 659 0
-627 592 659 0
-628 -593 -660 0
628 593 -660 0
628 -593 660 0
-628 593 660 0
-629 -594 -661 0
629 594 -661 0
629 -594 661 0
-629 594 661 0
-630 -595 -662 0
630 595 -662 0
630 -595 662 0
-630 595 662 0
-631 -596 -663 0
631 596 -663 0
631 -596 663 0
-631 596 663 0
-632 -597 -664 0
632 597 -664 0
632 -597 664 0
-632 597 664 0
-633 -598 -665 0
633 598 -665 0
633 -598 665 0
-633 598 665 0
-634 -599 -666 0
634 599 -666 0
634 -599 666 0
-634 599 666 0
-635 -600 -667 0
635 600 -667 0
635 -600 667 0
-635 600 667 0
-636 -601 -668 0
636 601 -668 0
636 -601 668 0
-636 601 668 0
-637 -602 -669 0
637 602 -669 0
637 -602 669 0
-637 602 669 0
-638 -603 -670 0
638 603 -670 0
638 -603 670 0
-638 603 670 0
-639 -604 -671 0
639 604 -671 0
639 -604 671 0
-639 604 671 0
-640 -605 -672 0
640 605 -672 0
640 -605 672 0
-640 605 672 0
-641 -85 -673 0
641 85 -673 0
641 -85 673 0
-641 85 673 0
-642 -86 -674 0
642 86 -674 0
642 -86 674 0
-642 86 674 0
-643 -87 -675 0
643 87 -675 0
643 -87 675 0
-643 87 675 0
-644 -88 -676 0
644 88 -676 0
644 -88 676 0
-644 88 676 0
-645 -89 -677 0
645 89 -677 0
645 -89 677 0
-645 89 677 0
-646 -90 -678 0
646 90 -678 0
646 -90 678 0
-646 90 678 0
-647 -91 -679 0
647 91 -679 0
647 -91 679 0
-647 91 679 0
-648 -92 -680 0
648 92 -680 0
648 -92 680 0
-648 92 680 0
-649 -93 -681 0
649 93 -681 0
649 -93 681 0
-649 93 681 0
-650 -94 -682 0
650 94 -682 0
650 -94 682 0
-650 94 682 0
-651 -95 -683 0
651 95 -683 0
651 -95 683 0
-651 95 683 0
-652 -96 -684 0
652 96 -684 0
652 -96 684 0
-652 96 684 0
-653 -65 -685 0
653 65 -685 0
653 -65 685 0
-653 65 685 0
-654 -66 -686 0
654 66 -686 0
654 -66 686 0
-654 66 686 0
-655 -67 -687 0
655 67 -687 0
655 -67 687 0
-655 67 687 0
-656 -68 -688 0
656 68 -688 0
656 -68 688 0
-656 68 688 0
-657 -69 -689 0
657 69 -689 0
657 -69 689 0
-657 69 689 0
-658 -70 -690 0
658 70 -690 0
658 -70 690 0
-658 70 690 0
-659 -71 -691 0
659 71 -691 0
659 -71 691 0
-659 71 691 0
-660 -72 -692 0
660 72 -692 0
660 -72 692 0
-660 72 692 0
-661 -73 -693 0
661 73 -693 0
661 -73 693 0
-661 73 693 0
-662 -74 -694 0
662 74 -694 0
662 -74 694 0
-662 74 694 0
-663 -75 -695 0
663 75 -695 0
663 -75 695 0
-663 75 695 0
-664 -76 -696 0
664 76 -696 0
664 -76 696 0
-664 76 696 0
-665 -77 -697 0
665 77 -697 0
665 -77 697 0
-665 77 697 0
-666 -78 -698 0
666 78 -698 0
666 -78 698 0
-666 78 698 0
-667 -79 -699 0
667 79 -699 0
667 -79 699 0
-667 79 699 0
-668 -80 -700 0
668 80 -700 0
668 -80 700 0
-668 80 700 0
-669 -81 -701 0
669 81 -701 0
669 -81 701 0
-669 81 701 0
-670 -82 -702 0
670 82 -702 0
670 -82 702 0
-670 82 702 0
-671 -83 -703 0
671 83 -703 0
671 -83 703 0
-671 83 703 0
-672 -84 -704 0
672 84 -704 0
672 -84 704 0
-672 84 704 0
-449 -673 -705 0
449 673 -705 0
449 -673 705 0
-449 673 705 0
-450 -674 -706 0
450 674 -706 0
450 -674 706 0
-450 674 706 0
-451 -675 -707 0
451 675 -707 0
451 -675 707 0
-451 675 707 0
-452 -676 -708 0
452 676 -708 0
452 -676 708 0
-452 676 708 0
-453 -677 -709 0
453 677 -709 0
453 -677 709 0
-453 677 709 0
-454 -678 -710 0
454 678 -710 0
454 -678 710 0
-454 678 710 0
-455 -679 -711 0
455 679 -711 0
455 -679 711 0
-455 679 711 0
-456 -680 -712 0
456 680 -712 0
456 -680 712 0
-456 680 712 0
-457 -681 -713 0
457 681 -713 0
457 -681 713 0
-457 681 713 0
-458 -682 -714 0
458 682 -714 0
458 -682 714 0
-458 682 714 0
-459 -683 -715 0
459 683 -715 0
459 -683 715 0
-459 683 715 0
-460 -684 -716 0
460 684 -716 0
460 -684 716 0
-460 684 716 0
-461 -685 -717 0
461 685 -717 0
461 -685 717 0
-461 685 717 0
-462 -686 -718 0
462 686 -718 0
462 -686 718 0
-462 686 718 0
-463 -687 -719 0
463 687 -719 0
463 -687 719 0
-463 687 719 0
-464 -688 -720 0
464 688 -720 0
464 -688 720 0
-464 688 720 0
-465 -689 -721 0
465 689 -721 0
465 -689 721 0
-465 689 721 0
-466 -690 -722 0
466 690 -722 0
466 -690 722 0
-466 690 722 0
-467 -691 -723 0
467 691 -723 0
467 -691 723 0
-467 691 723 0
-468 -692 -724 0
468 692 -724 0
468 -692 724 0
-468 692 724 0
-469 -693 -725 0
469 693 -725 0
469 -693 725 0
-469 693 725 0
-470 -694 -726 0
470 694 -726 0
470 -694 726 0
-470 694 726 0
-471 -695 -727 0
471 695 -727 0
471 -695 727 0
-471 695 727 0
-472 -696 -728 0
472 696 -728 0
472 -696 728 0
-472 696 728 0
-473 -697 -729 0
473 697 -729 0
473 -697 729 0
-473 697 729 0
-474 -698 -730 0
474 698 -730 0
474 -698 730 0
-474 698 730 0
-475 -699 -731 0
475 699 -731 0
475 -699 731 0
-475 699 731 0
-476 -700 -732 0
476 700 -732 0
476 -700 732 0
-476 700 732 0
-477 -701 -733 0
477 701 -733 0
477 -701 733 0
-477 701 733 0
-478 -702 -734 0
478 702 -734 0
478 -702 734 0
-478 702 734 0
-479 -703 -735 0
479 703 -735 0
479 -703 735 0
-479 703 735 0
-480 -704 -736 0
480 704 -736 0
480 -704 736 0
-480 704 736 0
-737 705 0
-737 82 0
-705 -82 737 0
-738 706 0
-738 83 0
-706 -83 738 0
-739 707 0
-739 84 0
-707 -84 739 0
-740 708 0
-740 85 0
-708 -85 740 0
-741 709 0
-741 86 0
-709 -86 741 0
-742 710 0
-742 87 0
-710 -87 742 0
-743 711 0
-743 88 0
-711 -88 743 0
-744 712 0
-744 89 0
-712 -89 744 0
-745 713 0
-745 90 0
-713 -90 745 0
-746 714 0
-746 91 0
-714 -91 746 0
-747 715 0
-747 92 0
-715 -92 747 0
-748 716 0
-748 93 0
-716 -93 748 0
-749 717 0
-749 94 0
-717 -94 749 0
-750 718 0
-750 95 0
-718 -95 750 0
-751 719 0
-751 96 0
-719 -96 751 0
-752 720 0
-752 65 0
-720 -65 752 0
-753 721 0
-753 66 0
-721 -66 753 0
-754 722 0
-754 67 0
-722 -67 754 0
-755 723 0
-755 68 0
-723 -68 755 0
-756 724 0
-756 69 0
-724 -69 756 0
-757 725 0
-757 70 0
-725 -70 757 0
-758 726 0
-758 71 0
-726 -71 758 0
-759 727 0
-759 72 0
-727 -72 759 0
-760 728 0
-760 73 0
-728 -73 760 0
-761 729 0
-761 74 0
-729 -74 761 0
-762 730 0
-762 75 0
-730 -75 762 0
-763 731 0
-763 76 0
-731 -76 763 0
-764 732 0
-764 77 0
-732 -77 764 0
-765 733 0
-765 78 0
-733 -78 765 0
-766 734 0
-766 79 0
-734 -79 766 0
-767 735 0
-767 80 0
-735 -80 767 0
-768 736 0
-768 81 0
-736 -81 768 0
-737 -734 -769 0
737 734 -769 0
737 -734 769 0
-737 734 769 0
-738 -735 -770 0
738 735 -770 0
738 -735 770 0
-738 735 770 0
-739 -736 -771 0
739 736 -771 0
739 -736 771 0
-739 736 771 0
-740 -705 -772 0
740 705 -772 0
740 -705 772 0
-740 705 772 0
-741 -706 -773 0
741 706 -773 0
741 -706 773 0
-741 706 773 0
-742 -707 -774 0
742 707 -774 0
742 -707 774 0
-742 707 774 0
-743 -708 -775 0
743 708 -775 0
743 -708 775 0
-743 708 775 0
-744 -709 -776 0
744 709 -776 0
744 -709 776 0
-744 709 776 0
-745 -710 -777 0
745 710 -777 0
745 -710 777 0
-745 710 777 0
-746 -711 -778 0
746 711 -778 0
746 -711 778 0
-746 711 778 0
-747 -712 -779 0
747 712 -779 0
747 -712 779 0
-747 712 779 0
-748 -713 -780 0
748 713 -780 0
748 -713 780 0
-748 713 780 0
-749 -714 -781 0
749 714 -781 0
749 -714 781 0
-749 714 781 0
-750 -715 -782 0
750 715 -782 0
750 -715 782 0
-750 715 782 0
-751 -716 -783 0
751 716 -783 0
751 -716 783 0
-751 716 783 0
-752 -717 -784 0
752 717 -784 0
752 -717 784 0
-752 717 784 0
-753 -718 -785 0
753 718 -785 0
753 -718 785 0
-753 718 785 0
-754 -719 -786 0
754 719 -786 0
754 -719 786 0
-754 719 786 0
-755 -720 -787 0
755 720 -787 0
755 -720 787 0
-755 720 787 0
-756 -721 -788 0
756 721 -788 0
756 -721 788 0
-756 721 788 0
-757 -722 -789 0
757 722 -789 0
757 -722 789 0
-757 722 789 0
-758 -723 -790 0
758 723 -790 0
758 -723 790 0
-758 723 790 0
-759 -724 -791 0
759 724 -791 0
759 -724 791 0
-759 724 791 0
-760 -725 -792 0
760 725 -792 0
760 -725 792 0
-760 725 792 0
-761 -726 -793 0
761 726 -793 0
761 -726 793 0
-761 726 793 0
-762 -727 -794 0
762 727 -794 0
762 -727 794 0
-762 727 794 0
-763 -728 -795 0
763 728 -795 0
763 -728 795 0
-763 728 795 0
-764 -729 -796 0
764 729 -796 0
764 -729 796 0
-764 729 796 0
-765 -730 -797 0
765 730 -797 0
765 -730 797 0
-765 730 797 0
-766 -731 -798 0
766 731 -798 0
766 -731 798 0
-766 731 798 0
-767 -732 -799 0
767 732 -799 0
767 -732 799 0
-767 732 799 0
-768 -733 -800 0
768 733 -800 0
768 -733 800 0
-768 733 800 0
-769 -82 -801 0
769 82 -801 0
769 -82 801 0
-769 82 801 0
-770 -83 -802 0
770 83 -802 0
770 -83 802 0
-770 83 802 0
-771 -84 -803 0
771 84 -803 0
771 -84 803 0
-771 84 803 0
-772 -85 -804 0
772 85 -804 0
772 -85 804 0
-772 85 804 0
-773 -86 -805 0
773 86 -805 0
773 -86 805 0
-773 86 805 0
-774 -87 -806 0
774 87 -806 0
774 -87 806 0
-774 87 806 0
-775 -88 -807 0
775 88 -807 0
775 -88 807 0
-775 88 807 0
-776 -89 -808 0
776 89 -808 0
776 -89 808 0
-776 89 808 0
-777 -90 -809 0
777 90 -809 0
777 -90 809 0
-777 90 809 0
-778 -91 -810 0
778 91 -810 0
778 -91 810 0
-778 91 810 0
-779 -92 -811 0
779 92 -811 0
779 -92 811 0
-779 92 811 0
-780 -93 -812 0
780 93 -812 0
780 -93 812 0
-780 93 812 0
-781 -94 -813 0
781 94 -813 0
781 -94 813 0
-781 94 813 0
-782 -95 -814 0
782 95 -814 0
782 -95 814 0
-782 95 814 0
-783 -96 -815 0
783 96 -815 0
783 -96 815 0
-783 96 815 0
-784 -65 -816 0
784 65 -816 0
784 -65 816 0
-784 65 816 0
-785 -66 -817 0
785 66 -817 0
785 -66 817 0
-785 66 817 0
-786 -67 -818 0
786 67 -818 0
786 -67 818 0
-786 67 818 0
-787 -68 -819 0
787 68 -819 0
787 -68 819 0
-787 68 819 0
-788 -69 -820 0
788 69 -820 0
788 -69 820 0
-788 69 820 0
-789 -70 -821 0
789 70 -821 0
789 -70 821 0
-789 70 821 0
-790 -71 -822 0
790 71 -822 0
790 -71 822 0
-790 71 822 0
-791 -72 -823 0
791 72 -823 0
791 -72 823 0
-791 72 823 0
-792 -73 -824 0
792 73 -824 0
792 -73 824 0
-792 73 824 0
-793 -74 -825 0
793 74 -825 0
793 -74 825 0
-793 74 825 0
-794 -75 -826 0
794 75 -826 0
794 -75 826 0
-794 75 826 0
-795 -76 -827 0
795 76 -827 0
795 -76 827 0
-795 76 827 0
-796 -77 -828 0
796 77 -828 0
796 -77 828 0
-796 77 828 0
-797 -78 -829 0
797 78 -829 0
797 -78 829 0
-797 78 829 0
-798 -79 -830 0
798 79 -830 0
798 -79 830 0
-798 79 830 0
-799 -80 -831 0
799 80 -831 0
799 -80 831 0
-799 80 831 0
-800 -81 -832 0
800 81 -832 0
800 -81 832 0
-800 81 832 0
-577 -801 -833 0
577 801 -833 0
577 -801 833 0
-577 801 833 0
-578 -802 -834 0
578 802 -834 0
578 -802 834 0
-578 802 834 0
-579 -803 -835 0
579 803 -835 0
579 -803 835 0
-579 803 835 0
-580 -804 -836 0
580 804 -836 0
580 -804 836 0
-580 804 836 0
-581 -805 -837 0
581 805 -837 0
581 -805 837 0
-581 805 837 0
-582 -806 -838 0
582 806 -838 0
582 -806 838 0
-582 806 838 0
-583 -807 -839 0
583 807 -839 0
583 -807 839 0
-583 807 839 0
-584 -808 -840 0
584 808 -840 0
584 -808 840 0
-584 808 840 0
-585 -809 -841 0
585 809 -841 0
585 -809 841 0
-585 809 841 0
-586 -810 -842 0
586 810 -842 0
586 -810 842 0
-586 810 842 0
-587 -811 -843 0
587 811 -843 0
587 -811 843 0
-587 811 843 0
-588 -812 -844 0
588 812 -844 0
588 -812 844 0
-588 812 844 0
-589 -813 -845 0
589 813 -845 0
589 -813 845 0
-589 813 845 0
-590 -814 -846 0
590 814 -846 0
590 -814 846 0
-590 814 846 0
-591 -815 -847 0
591 815 -847 0
591 -815 847 0
-591 815 847 0
-592 -816 -848 0
592 816 -848 0
592 -816 848 0
-592 816 848 0
-593 -817 -849 0
593 817 -849 0
593 -817 849 0
-593 817 849 0
-594 -818 -850 0
594 818 -850 0
594 -818 850 0
-594 818 850 0
-595 -819 -851 0
595 819 -851 0
595 -819 851 0
-595 819 851 0
-596 -820 -852 0
596 820 -852 0
596 -820 852 0
-596 820 852 0
-597 -821 -853 0
597 821 -853 0
597 -821 853 0
-597 821 853 0
-598 -822 -854 0
598 822 -854 0
598 -822 854 0
-598 822 854 0
-599 -823 -855 0
599 823 -855 0
599 -823 855 0
-599 823 855 0
-600 -824 -856 0
600 824 -856 0
600 -824 856 0
-600 824 856 0
-601 -825 -857 0
601 825 -857 0
601 -825 857 0
-601 825 857 0
-602 -826 -858 0
602 826 -858 0
602 -826 858 0
-602 826 858 0
-603 -827 -859 0
603 827 -859 0
603 -827 859 0
-603 827 859 0
-604 -828 -860 0
604 828 -860 0
604 -828 860 0
-604 828 860 0
-605 -829 -861 0
605 829 -861 0
605 -829 861 0
-605 829 861 0
-606 -830 -862 0
606 830 -862 0
606 -830 862 0
-606 830 862 0
-607 -831 -863 0
607 831 -863 0
607 -831 863 0
-607 831 863 0
-608 -832 -864 0
608 832 -864 0
608 -832 864 0
-608 832 864 0
-865 833 0
-865 79 0
-833 -79 865 0
-866 834 0
-866 80 0
-834 -80 866 0
-867 835 0
-867 81 0
-835 -81 867 0
-868 836 0
-868 82 0
-836 -82 868 0
-869 837 0
-869 83 0
-837 -83 869 0
-870 838 0
-870 84 0
-838 -84 870 0
-871 839 0
-871 85 0
-839 -85 871 0
-872 840 0
-872 86 0
-840 -86 872 0
-873 841 0
-873 87 0
-841 -87 873 0
-874 842 0
-874 88 0
-842 -88 874 0
-875 843 0
-875 89 0
-843 -89 875 0
-876 844 0
-876 90 0
-844 -90 876 0
-877 845 0
-877 91 0
-845 -91 877 0
-878 846 0
-878 92 0
-846 -92 878 0
-879 847 0
-879 93 0
-847 -93 879 0
-880 848 0
-880 94 0
-848 -94 880 0
-881 849 0
-881 95 0
-849 -95 881 0
-882 850 0
-882 96 0
-850 -96 882 0
-883 851 0
-883 65 0
-851 -65 883 0
-884 852 0
-884 66 0
-852 -66 884 0
-885 853 0
-885 67 0
-853 -67 885 0
-886 854 0
-886 68 0
-854 -68 886 0
-887 855 0
-887 69 0
-855 -69 887 0
-888 856 0
-888 70 0
-856 -70 888 0
-889 857 0
-889 71 0
-857 -71 889 0
-890 858 0
-890 72 0
-858 -72 890 0
-891 859 0
-891 73 0
-859 -73 891 0
-892 860 0
-892 74 0
-860 -74 892 0
-893 861 0
-893 75 0
-861 -75 893 0
-894 862 0
-894 76 0
-862 -76 894 0
-895 863 0
-895 77 0
-863 -77 895 0
-896 864 0
-896 78 0
-864 -78 896 0
-865 -862 -897 0
865 862 -897 0
865 -862 897 0
-865 862 897 0
-866 -863 -898 0
866 863 -898 0
866 -863 898 0
-866 863 898 0
-867 -864 -899 0
867 864 -899 0
867 -864 899 0
-867 864 899 0
-868 -833 -900 0
868 833 -900 0
868 -833 900 0
-868 833 900 0
-869 -834 -901 0
869 834 -901 0
869 -834 901 0
-869 834 901 0
-870 -835 -902 0
870 835 -902 0
870 -835 902 0
-870 835 902 0
-871 -836 -903 0
871 836 -903 0
871 -836 903 0
-871 836 903 0
-872 -837 -904 0
872 837 -904 0
872 -837 904 0
-872 837 904 0
-873 -838 -905 0
873 838 -905 0
873 -838 905 0
-873 838 905 0
-874 -839 -906 0
874 839 -906 0
874 -839 906 0
-874 839 906 0
-875 -840 -907 0
875 840 -907 0
875 -840 907 0
-875 840 907 0
-876 -841 -908 0
876 841 -908 0
876 -841 908 0
-876 841 908 0
-877 -842 -909 0
877 842 -909 0
877 -842 909 0
-877 842 909 0
-878 -843 -910 0
878 843 -910 0
878 -843 910 0
-878 843 910 0
-879 -844 -911 0
879 844 -911 0
879 -844 911 0
-879 844 911 0
-880 -845 -912 0
880 845 -912 0
880 -845 912 0
-880 845 912 0
-881 -846 -913 0
881 846 -913 0
881 -846 913 0
-881 846 913 0
-882 -847 -914 0
882 847 -914 0
882 -847 914 0
-882 847 914 0
-883 -848 -915 0
883 848 -915 0
883 -848 915 0
-883 848 915 0
-884 -849 -916 0
884 849 -916 0
884 -849 916 0
-884 849 916 0
-885 -850 -917 0
885 850 -917 0
885 -850 917 0
-885 850 917 0
-886 -851 -918 0
886 851 -918 0
886 -851 918 0
-886 851 918 0
-887 -852 -919 0
887 852 -919 0
887 -852 919 0
-887 852 919 0
-888 -853 -920 0
888 853 -920 0
888 -853 920 0
-888 853 920 0
-889 -854 -921 0
889 854 -921 0
889 -854 921 0
-889 854 921 0
-890 -855 -922 0
890 855 -922 0
890 -855 922 0
-890 855 922 0
-891 -856 -923 0
891 856 -923 0
891 -856 923 0
-891 856 923 0
-892 -857 -924 0
892 857 -924 0
892 -857 924 0
-892 857 924 0
-893 -858 -925 0
893 858 -925 0
893 -858 925 0
-893 858 925 0
-894 -859 -926 0
894 859 -926 0
894 -859 926 0
-894 859 926 0
-895 -860 -927 0
895 860 -927 0
895 -860 927 0
-895 860 927 0
-896 -861 -928 0
896 861 -928 0
896 -861 928 0
-896 861 928 0
-897 -79 -929 0
897 79 -929 0
897 -79 929 0
-897 79 929 0
-898 -80 -930 0
898 80 -930 0
898 -80 930 0
-898 80 930 0
-899 -81 -931 0
899 81 -931 0
899 -81 931 0
-899 81 931 0
-900 -82 -932 0
900 82 -932 0
900 -82 932 0
-900 82 932 0
-901 -83 -933 0
901 83 -933 0
901 -83 933 0
-901 83 933 0
-902 -84 -934 0
902 84 -934 0
902 -84 934 0
-902 84 934 0
-903 -85 -935 0
903 85 -935 0
903 -85 935 0
-903 85 935 0
-904 -86 -936 0
904 86 -936 0
904 -86 936 0
-904 86 936 0
-905 -87 -937 0
905 87 -937 0
905 -87 937 0
-905 87 937 0
-906 -88 -938 0
906 88 -938 0
906 -88 938 0
-906 88 938 0
-907 -89 -939 0
907 89 -939 0
907 -89 939 0
-907 89 939 0
-908 -90 -940 0
908 90 -940 0
908 -90 940 0
-908 90 940 0
-909 -91 -941 0
909 91 -941 0
909 -91 941 0
-909 91 941 0
-910 -92 -942 0
910 92 -942 0
910 -92 942 0
-910 92 942 0
-911 -93 -943 0
911 93 -943 0
911 -93 943 0
-911 93 943 0
-912 -94 -944 0
912 94 -944 0
912 -94 944 0
-912 94 944 0
-913 -95 -945 0
913 95 -945 0
913 -95 945 0
-913 95 945 0
-914 -96 -946 0
914 96 -946 0
914 -96 946 0
-914 96 946 0
-915 -65 -947 0
915 65 -947 0
915 -65 947 0
-915 65 947 0
-916 -66 -948 0
916 66 -948 0
916 -66 948 0
-916 66 948 0
-917 -67 -949 0
917 67 -949 0
917 -67 949 0
-917 67 949 0
-918 -68 -950 0
918 68 -950 0
918 -68 950 0
-918 68 950 0
-919 -69 -951 0
919 69 -951 0
919 -69 951 0
-919 69 951 0
-920 -70 -952 0
920 70 -952 0
920 -70 952 0
-920 70 952 0
-921 -71 -953 0
921 71 -953 0
921 -71 953 0
-921 71 953 0
-922 -72 -954 0
922 72 -954 0
922 -72 954 0
-922 72 954 0
-923 -73 -955 0
923 73 -955 0
923 -73 955 0
-923 73 955 0
-924 -74 -956 0
924 74 -956 0
924 -74 956 0
-924 74 956 0
-925 -75 -957 0
925 75 -957 0
925 -75 957 0
-925 75 957 0
-926 -76 -958 0
926 76 -958 0
926 -76 958 0
-926 76 958 0
-927 -77 -959 0
927 77 -959 0
927 -77 959 0
-927 77 959 0
-928 -78 -960 0
928 78 -960 0
928 -78 960 0
-928 78 960 0
-705 -929 -961 0
705 929 -961 0
705 -929 961 0
-705 929 961 0
-706 -930 -962 0
706 930 -962 0
706 -930 962 0
-706 930 962 0
-707 -931 -963 0
707 931 -963 0
707 -931 963 0
-707 931 963 0
-708 -932 -964 0
708 932 -964 0
708 -932 964 0
-708 932 964 0
-709 -933 -965 0
709 933 -965 0
709 -933 965 0
-709 933 965 0
-710 -934 -966 0
710 934 -966 0
710 -934 966 0
-710 934 966 0
-711 -935 -967 0
711 935 -967 0
711 -935 967 0
-711 935 967 0
-712 -936 -968 0
712 936 -968 0
712 -936 968 0
-712 936 968 0
-713 -937 -969 0
713 937 -969 0
713 -937 969 0
-713 937 969 0
-714 -938 -970 0
714 938 -970 0
714 -938 970 0
-714 938 970 0
-715 -939 -971 0
715 939 -971 0
715 -939 971 0
-715 939 971 0
-716 -940 -972 0
716 940 -972 0
716 -940 972 0
-716 940 972 0
-717 -941 -973 0
717 941 -973 0
717 -941 973 0
-717 941 973 0
-718 -942 -974 0
718 942 -974 0
718 -942 974 0
-718 942 974 0
-719 -943 -975 0
719 943 -975 0
719 -943 975 0
-719 943 975 0
-720 -944 -976 0
720 944 -976 0
720 -944 976 0
-720 944 976 0
-721 -945 -977 0
721 945 -977 0
721 -945 977 0
-721 945 977 0
-722 -946 -978 0
722 946 -978 0
722 -946 978 0
-722 946 978 0
-723 -947 -979 0
723 947 -979 0
723 -947 979 0
-723 947 979 0
-724 -948 -980 0
724 948 -980 0
724 -948 980 0
-724 948 980 0
-725 -949 -981 0
725 949 -981 0
725 -949 981 0
-725 949 981 0
-726 -950 -982 0
726 950 -982 0
726 -950 982 0
-726 950 982 0
-727 -951 -983 0
727 951 -983 0
727 -951 983 0
-727 951 983 0
-728 -952 -984 0
728 952 -984 0
728 -952 984 0
-728 952 984 0
-729 -953 -985 0
729 953 -985 0
729 -953 985 0
-729 953 985 0
-730 -954 -986 0
730 954 -986 0
730 -954 986 0
-730 954 986 0
-731 -955 -987 0
731 955 -987 0
731 -955 987 0
-731 955 987 0
-732 -956 -988 0
732 956 -988 0
732 -956 988 0
-732 956 988 0
-733 -957 -989 0
733 957 -989 0
733 -957 989 0
-733 957 989 0
-734 -958 -990 0
734 958 -990 0
734 -958 990 0
-734 958 990 0
-735 -959 -991 0
735 959 -991 0
735 -959 991 0
-735 959 991 0
-736 -960 -992 0
736 960 -992 0
736 -960 992 0
-736 960 992 0
-993 961 0
-993 76 0
-961 -76 993 0
-994 962 0
-994 77 0
-962 -77 994 0
-995 963 0
-995 78 0
-963 -78 995 0
-996 964 0
-996 79 0
-964 -79 996 0
-997 965 0
-997 80 0
-965 -80 997 0
-998 966 0
-998 81 0
-966 -81 998 0
-999 967 0
-999 82 0
-967 -82 999 0
-1000 968 0
-1000 83 0
-968 -83 1000 0
-1001 969 0
-1001 84 0
-969 -84 1001 0
-1002 970 0
-1002 85 0
-970 -85 1002 0
-1003 971 0
-1003 86 0
-971 -86 1003 0
-1004 972 0
-1004 87 0
-972 -87 1004 0
-1005 973 0
-1005 88 0
-973 -88 1005 0
-1006 974 0
-1006 89 0
-974 -89 1006 0
-1007 975 0
-1007 90 0
-975 -90 1007 0
-1008 976 0
-1008 91 0
-976 -91 1008 0
-1009 977 0
-1009 92 0
-977 -92 1009 0
-1010 978 0
-1010 93 0
-978 -93 1010 0
-1011 979 0
-1011 94 0
-979 -94 1011 0
-1012 980 0
-1012 95 0
-980 -95 1012 0
-1013 981 0
-1013 96 0
-981 -96 1013 0
-1014 982 0
-1014 65 0
-982 -65 1014 0
-1015 983 0
-1015 66 0
-983 -66 1015 0
-1016 984 0
-1016 67 0
-984 -67 1016 0
-1017 985 0
-1017 68 0
-985 -68 1017 0
-1018 986 0
-1018 69 0
-986 -69 1018 0
-1019 987 0
-1019 70 0
-987 -70 1019 0
-1020 988 0
-1020 71 0
-988 -71 1020 0
-1021 989 0
-1021 72 0
-989 -72 1021 0
-1022 990 0
-1022 73 0
-990 -73 1022 0
-1023 991 0
-1023 74 0
-991 -74 1023 0
-1024 992 0
-1024 75 0
-992 -75 1024 0
-993 -990 -1025 0
993 990 -1025 0
993 -990 1025 0
-993 990 1025 0
-994 -991 -1026 0
994 991 -1026 0
994 -991 1026 0
-994 991 1026 0
-995 -992 -1027 0
995 992 -1027 0
995 -992 1027 0
-995 992 1027 0
-996 -961 -1028 0
996 961 -1028 0
996 -961 1028 0
-996 961 1028 0
-997 -962 -1029 0
997 962 -1029 0
997 -962 1029 0
-997 962 1029 0
-998 -963 -1030 0
998 963 -1030 0
998 -963 1030 0
-998 963 1030 0
-999 -964 -1031 0
999 964 -1031 0
999 -964 1031 0
-999 964 1031 0
-1000 -965 -1032 0
1000 965 -1032 0
1000 -965 1032 0
-1000 965 1032 0
-1001 -966 -1033 0
1001 966 -1033 0
1001 -966 1033 0
-1001 966 1033 0
-1002 -967 -1034 0
1002 967 -1034 0
1002 -967 1034 0
-1002 967 1034 0
-1003 -968 -1035 0
1003 968 -1035 0
1003 -968 1035 0
-1003 968 1035 0
-1004 -969 -1036 0
1004 969 -1036 0
1004 -969 1036 0
-1004 969 1036 0
-1005 -970 -1037 0
1005 970 -1037 0
1005 -970 1037 0
-1005 970 1037 0
-1006 -971 -1038 0
1006 971 -1038 0
1006 -971 1038 0
-1006 971 1038 0
-1007 -972 -1039 0
1007 972 -1039 0
1007 -972 1039 0
-1007 972 1039 0
-1008 -973 -1040 0
1008 973 -1040 0
1008 -973 1040 0
-1008 973 1040 0
-1009 -974 -1041 0
1009 974 -1041 0
1009 -974 1041 0
-1009 974 1041 0
-1010 -975 -1042 0
1010 975 -1042 0
1010 -975 1042 0
-1010 975 1042 0
-1011 -976 -1043 0
1011 976 -1043 0
1011 -976 1043 0
-1011 976 1043 0
-1012 -977 -1044 0
1012 977 -1044 0
1012 -977 1044 0
-1012 977 1044 0
-1013 -978 -1045 0
1013 978 -1045 0
1013 -978 1045 0
-1013 978 1045 0
-1014 -979 -1046 0
1014 979 -1046 0
1014 -979 1046 0
-1014 979 1046 0
-1015 -980 -1047 0
1015 980 -1047 0
1015 -980 1047 0
-1015 980 1047 0
-1016 -981 -1048 0
1016 981 -1048 0
1016 -981 1048 0
-1016 981 1048 0
-1017 -982 -1049 0
1017 982 -1049 0
1017 -982 1049 0
-1017 982 1049 0
-1018 -983 -1050 0
1018 983 -1050 0
1018 -983 1050 0
-1018 983 1050 0
-1019 -984 -1051 0
1019 984 -1051 0
1019 -984 1051 0
-1019 984 1051 0
-1020 -985 -1052 0
1020 985 -1052 0
1020 -985 1052 0
-1020 985 1052 0
-1021 -986 -1053 0
1021 986 -1053 0
1021 -986 1053 0
-1021 986 1053 0
-1022 -987 -1054 0
1022 987 -1054 0
1022 -987 1054 0
-1022 987 1054 0
-1023 -988 -1055 0
1023 988 -1055 0
1023 -988 1055 0
-1023 988 1055 0
-1024 -989 -1056 0
1024 989 -1056 0
1024 -989 1056 0
-1024 989 1056 0
-1025 -76 -1057 0
1025 76 -1057 0
1025 -76 1057 0
-1025 76 1057 0
-1026 -77 -1058 0
1026 77 -1058 0
1026 -77 1058 0
-1026 77 1058 0
-1027 -78 -1059 0
1027 78 -1059 0
1027 -78 1059 0
-1027 78 1059 0
-1028 -79 -1060 0
1028 79 -1060 0
1028 -79 1060 0
-1028 79 1060 0
-1029 -80 -1061 0
1029 80 -1061 0
1029 -80 1061 0
-1029 80 1061 0
-1030 -81 -1062 0
1030 81 -1062 0
1030 -81 1062 0
-1030 81 1062 0
-1031 -82 -1063 0
1031 82 -1063 0
1031 -82 1063 0
-1031 82 1063 0
-1032 -83 -1064 0
1032 83 -1064 0
1032 -83 1064 0
-1032 83 1064 0
-1033 -84 -1065 0
1033 84 -1065 0
1033 -84 1065 0
-1033 84 1065 0
-1034 -85 -1066 0
1034 85 -1066 0
1034 -85 1066 0
-1034 85 1066 0
-1035 -86 -1067 0
1035 86 -1067 0
1035 -86 1067 0
-1035 86 1067 0
-1036 -87 -1068 0
1036 87 -1068 0
1036 -87 1068 0
-1036 87 1068 0
-1037 -88 -1069 0
1037 88 -1069 0
1037 -88 1069 0
-1037 88 1069 0
-1038 -89 -1070 0
1038 89 -1070 0
1038 -89 1070 0
-1038 89 1070 0
-1039 -90 -1071 0
1039 90 -1071 0
1039 -90 1071 0
-1039 90 1071 0
-1040 -91 -1072 0
1040 91 -1072 0
1040 -91 1072 0
-1040 91 1072 0
-1041 -92 -1073 0
1041 92 -1073 0
1041 -92 1073 0
-1041 92 1073 0
-1042 -93 -1074 0
1042 93 -1074 0
1042 -93 1074 0
-1042 93 1074 0
-1043 -94 -1075 0
1043 94 -1075 0
1043 -94 1075 0
-1043 94 1075 0
-1044 -95 -1076 0
1044 95 -1076 0
1044 -95 1076 0
-1044 95 1076 0
-1045 -96 -1077 0
1045 96 -1077 0
1045 -96 1077 0
-1045 96 1077 0
-1046 -65 -1078 0
1046 65 -1078 0
1046 -65 1078 0
-1046 65 1078 0
-1047 -66 -1079 0
1047 66 -1079 0
1047 -66 1079 0
-1047 66 1079 0
-1048 -67 -1080 0
1048 67 -1080 0
1048 -67 1080 0
-1048 67 1080 0
-1049 -68 -1081 0
1049 68 -1081 0
1049 -68 1081 0
-1049 68 1081 0
-1050 -69 -1082 0
1050 69 -1082 0
1050 -69 1082 0
-1050 69 1082 0
-1051 -70 -1083 0
1051 70 -1083 0
1051 -70 1083 0
-1051 70 1083 0
-1052 -71 -1084 0
1052 71 -1084 0
1052 -71 1084 0
-1052 71 1084 0
-1053 -72 -1085 0
1053 72 -1085 0
1053 -72 1085 0
-1053 72 1085 0
-1054 -73 -1086 0
1054 73 -1086 0
1054 -73 1086 0
-1054 73 1086 0
-1055 -74 -1087 0
1055 74 -1087 0
1055 -74 1087 0
-1055 74 1087 0
-1056 -75 -1088 0
1056 75 -1088 0
1056 -75 1088 0
-1056 75 1088 0
-833 -1057 -1089 0
833 1057 -1089 0
833 -1057 1089 0
-833 1057 1089 0
-834 -1058 -1090 0
834 1058 -1090 0
834 -1058 1090 0
-834 1058 1090 0
-835 -1059 -1091 0
835 1059 -1091 0
835 -1059 1091 0
-835 1059 1091 0
-836 -1060 -1092 0
836 1060 -1092 0
836 -1060 1092 0
-836 1060 1092 0
-837 -1061 -1093 0
837 1061 -1093 0
837 -1061 1093 0
-837 1061 1093 0
-838 -1062 -1094 0
838 1062 -1094 0
838 -1062 1094 0
-838 1062 1094 0
-839 -1063 -1095 0
839 1063 -1095 0
839 -1063 1095 0
-839 1063 1095 0
-840 -1064 -1096 0
840 1064 -1096 0
840 -1064 1096 0
-840 1064 1096 0
-841 -1065 -1097 0
841 1065 -1097 0
841 -1065 1097 0
-841 1065 1097 0
-842 -1066 -1098 0
842 1066 -1098 0
842 -1066 1098 0
-842 1066 1098 0
-843 -1067 -1099 0
843 1067 -1099 0
843 -1067 1099 0
-843 1067 1099 0
-844 -1068 -1100 0
844 1068 -1100 0
844 -1068 1100 0
-844 1068 1100 0
-845 -1069 -1101 0
845 1069 -1101 0
845 -1069 1101 0
-845 1069 1101 0
-846 -1070 -1102 0
846 1070 -1102 0
846 -1070 1102 0
-846 1070 1102 0
-847 -1071 -1103 0
847 1071 -1103 0
847 -1071 1103 0
-847 1071 1103 0
-848 -1072 -1104 0
848 1072 -1104 0
848 -1072 1104 0
-848 1072 1104 0
-849 -1073 -1105 0
849 1073 -1105 0
849 -1073 1105 0
-849 1073 1105 0
-850 -1074 -1106 0
850 1074 -1106 0
850 -1074 1106 0
-850 1074 1106 0
-851 -1075 -1107 0
851 1075 -1107 0
851 -1075 1107 0
-851 1075 1107 0
-852 -1076 -1108 0
852 1076 -1108 0
852 -1076 1108 0
-852 1076 1108 0
-853 -1077 -1109 0
853 1077 -1109 0
853 -1077 1109 0
-853 1077 1109 0
-854 -1078 -1110 0
854 1078 -1110 0
854 -1078 1110 0
-854 1078 1110 0
-855 -1079 -1111 0
855 1079 -1111 0
855 -1079 1111 0
-855 1079 1111 0
-856 -1080 -1112 0
856 1080 -1112 0
856 -1080 1112 0
-856 1080 1112 0
-857 -1081 -1113 0
857 1081 -1113 0
857 -1081 1113 0
-857 1081 1113 0
-858 -1082 -1114 0
858 1082 -1114 0
858 -1082 1114 0
-858 1082 1114 0
-859 -1083 -1115 0
859 1083 -1115 0
859 -1083 1115 0
-859 1083 1115 0
-860 -1084 -1116 0
860 1084 -1116 0
860 -1084 1116 0
-860 1084 1116 0
-861 -1085 -1117 0
861 1085 -1117 0
861 -1085 1117 0
-861 1085 1117 0
-862 -1086 -1118 0
862 1086 -1118 0
862 -1086 1118 0
-862 1086 1118 0
-863 -1087 -1119 0
863 1087 -1119 0
863 -1087 1119 0
-863 1087 1119 0
-864 -1088 -1120 0
864 1088 -1120 0
864 -1088 1120 0
-864 1088 1120 0
-1121 1089 0
-1121 73 0
-1089 -73 1121 0
-1122 1090 0
-1122 74 0
-1090 -74 1122 0
-1123 1091 0
-1123 75 0
-1091 -75 1123 0
-1124 1092 0
-1124 76 0
-1092 -76 1124 0
-1125 1093 0
-1125 77 0
-1093 -77 1125 0
-1126 1094 0
-1126 78 0
-1094 -78 1126 0
-1127 1095 0
-1127 79 0
-1095 -79 1127 0
-1128 1096 0
-1128 80 0
-1096 -80 1128 0
-1129 1097 0
-1129 81 0
-1097 -81 1129 0
-1130 1098 0
-1130 82 0
-1098 -82 1130 0
-1131 1099 0
-1131 83 0
-1099 -83 1131 0
-1132 1100 0
-1132 84 0
-1100 -84 1132 0
-1133 1101 0
-1133 85 0
-1101 -85 1133 0
-1134 1102 0
-1134 86 0
-1102 -86 1134 0
-1135 1103 0
-1135 87 0
-1103 -87 1135 0
-1136 1104 0
-1136 88 0
-1104 -88 1136 0
-1137 1105 0
-1137 89 0
-1105 -89 1137 0
-1138 1106 0
-1138 90 0
-1106 -90 1138 0
-1139 1107 0
-1139 91 0
-1107 -91 1139 0
-1140 1108 0
-1140 92 0
-1108 -92 1140 0
-1141 1109 0
-1141 93 0
-1109 -93 1141 0
-1142 1110 0
-1142 94 0
-1110 -94 1142 0
-1143 1111 0
-1143 95 0
-1111 -95 1143 0
-1144 1112 0
-1144 96 0
-1112 -96 1144 0
-1145 1113 0
-1145 65 0
-1113 -65 1145 0
-1146 1114 0
-1146 66 0
-1114 -66 1146 0
-1147 1115 0
-1147 67 0
-1115 -67 1147 0
-1148 1116 0
-1148 68 0
-1116 -68 1148 0
-1149 1117 0
-1149 69 0
-1117 -69 1149 0
-1150 1118 0
-1150 70 0
-1118 -70 1150 0
-1151 1119 0
-1151 71 0
-1119 -71 1151 0
-1152 1120 0
-1152 72 0
-1120 -72 1152 0
-1121 -1118 -1153 0
1121 1118 -1153 0
1121 -1118 1153 0
-1121 1118 1153 0
-1122 -1119 -1154 0
1122 1119 -1154 0
1122 -1119 1154 0
-1122 1119 1154 0
-1123 -1120 -1155 0
1123 1120 -1155 0
1123 -1120 1155 0
-1123 1120 1155 0
-1124 -1089 -1156 0
1124 1089 -1156 0
1124 -1089 1156 0
-1124 1089 1156 0
-1125 -1090 -1157 0
1125 1090 -1157 0
1125 -1090 1157 0
-1125 1090 1157 0
-1126 -1091 -1158 0
1126 1091 -1158 0
1126 -1091 1158 0
-1126 1091 1158 0
-1127 -1092 -1159 0
1127 1092 -1159 0
1127 -1092 1159 0
-1127 1092 1159 0
-1128 -1093 -1160 0
1128 1093 -1160 0
1128 -1093 1160 0
-1128 1093 1160 0
-1129 -1094 -1161 0
1129 1094 -1161 0
1129 -1094 1161 0
-1129 1094 1161 0
-1130 -1095 -1162 0
1130 1095 -1162 0
1130 -1095 1162 0
-1130 1095 1162 0
-1131 -1096 -1163 0
1131 1096 -1163 0
1131 -1096 1163 0
-1131 1096 1163 0
-1132 -1097 -1164 0
1132 1097 -1164 0
1132 -1097 1164 0
-1132 1097 1164 0
-1133 -1098 -1165 0
1133 1098 -1165 0
1133 -1098 1165 0
-1133 1098 1165 0
-1134 -1099 -1166 0
1134 1099 -1166 0
1134 -1099 1166 0
-1134 1099 1166 0
-1135 -1100 -1167 0
1135 1100 -1167 0
1135 -1100 1167 0
-1135 1100 1167 0
-1136 -1101 -1168 0
1136 1101 -1168 0
1136 -1101 1168 0
-1136 1101 1168 0
-1137 -1102 -1169 0
1137 1102 -1169 0
1137 -1102 1169 0
-1137 1102 1169 0
-1138 -1103 -1170 0
1138 1103 -1170 0
1138 -1103 1170 0
-1138 1103 1170 0
-1139 -1104 -1171 0
1139 1104 -1171 0
1139 -1104 1171 0
-1139 1104 1171 0
-1140 -1105 -1172 0
1140 1105 -1172 0
1140 -1105 1172 0
-1140 1105 1172 0
-1141 -1106 -1173 0
1141 1106 -1173 0
1141 -1106 1173 0
-1141 1106 1173 0
-1142 -1107 -1174 0
1142 1107 -1174 0
1142 -1107 1174 0
-1142 1107 1174 0
-1143 -1108 -1175 0
1143 1108 -1175 0
1143 -1108 1175 0
-1143 1108 1175 0
-1144 -1109 -1176 0
1144 1109 -1176 0
1144 -1109 1176 0
-1144 1109 1176 0
-1145 -1110 -1177 0
1145 1110 -1177 0
1145 -1110 1177 0
-1145 1110 1177 0
-1146 -1111 -1178 0
1146 1111 -1178 0
1146 -1111 1178 0
-1146 1111 1178 0
-1147 -1112 -1179 0
1147 1112 -1179 0
1147 -1112 1179 0
-1147 1112 1179 0
-1148 -1113 -1180 0
1148 1113 -1180 0
1148 -1113 1180 0
-1148 1113 1180 0
-1149 -1114 -1181 0
1149 1114 -1181 0
1149 -1114 1181 0
-1149 1114 1181 0
-1150 -1115 -1182 0
1150 1115 -1182 0
1150 -1115 1182 0
-1150 1115 1182 0
-1151 -1116 -1183 0
1151 1116 -1183 0
1151 -1116 1183 0
-1151 1116 1183 0
-1152 -1117 -1184 0
1152 1117 -1184 0
1152 -1117 1184 0
-1152 1117 1184 0
-1153 -73 -1185 0
1153 73 -1185 0
1153 -73 1185 0
-1153 73 1185 0
-1154 -74 -1186 0
1154 74 -1186 0
1154 -74 1186 0
-1154 74 1186 0
-1155 -75 -1187 0
1155 75 -1187 0
1155 -75 1187 0
-1155 75 1187 0
-1156 -76 -1188 0
1156 76 -1188 0
1156 -76 1188 0
-1156 76 1188 0
-1157 -77 -1189 0
1157 77 -1189 0
1157 -77 1189 0
-1157 77 1189 0
-1158 -78 -1190 0
1158 78 -1190 0
1158 -78 1190 0
-1158 78 1190 0
-1159 -79 -1191 0
1159 79 -1191 0
1159 -79 1191 0
-1159 79 1191 0
-1160 -80 -1192 0
1160 80 -1192 0
1160 -80 1192 0
-1160 80 1192 0
-1161 -81 -1193 0
1161 81 -1193 0
1161 -81 1193 0
-1161 81 1193 0
-1162 -82 -1194 0
1162 82 -1194 0
1162 -82 1194 0
-1162 82 1194 0
-1163 -83 -1195 0
1163 83 -1195 0
1163 -83 1195 0
-1163 83 1195 0
-1164 -84 -1196 0
1164 84 -1196 0
1164 -84 1196 0
-1164 84 1196 0
-1165 -85 -1197 0
1165 85 -1197 0
1165 -85 1197 0
-1165 85 1197 0
-1166 -86 -1198 0
1166 86 -1198 0
1166 -86 1198 0
-1166 86 1198 0
-1167 -87 -1199 0
1167 87 -1199 0
1167 -87 1199 0
-1167 87 1199 0
-1168 -88 -1200 0
1168 88 -1200 0
1168 -88 1200 0
-1168 88 1200 0
-1169 -89 -1201 0
1169 89 -1201 0
1169 -89 1201 0
-1169 89 1201 0
-1170 -90 -1202 0
1170 90 -1202 0
1170 -90 1202 0
-1170 90 1202 0
-1171 -91 -1203 0
1171 91 -1203 0
1171 -91 1203 0
-1171 91 1203 0
-1172 -92 -1204 0
1172 92 -1204 0
1172 -92 1204 0
-1172 92 1204 0
-1173 -93 -1205 0
1173 93 -1205 0
1173 -93 1205 0
-1173 93 1205 0
-1174 -94 -1206 0
1174 94 -1206 0
1174 -94 1206 0
-1174 94 1206 0
-1175 -95 -1207 0
1175 95 -1207 0
1175 -95 1207 0
-1175 95 1207 0
-1176 -96 -1208 0
1176 96 -1208 0
1176 -96 1208 0
-1176 96 1208 0
-1177 -65 -1209 0
1177 65 -1209 0
1177 -65 1209 0
-1177 65 1209 0
-1178 -66 -1210 0
1178 66 -1210 0
1178 -66 1210 0
-1178 66 1210 0
-1179 -67 -1211 0
1179 67 -1211 0
1179 -67 1211 0
-1179 67 1211 0
-1180 -68 -1212 0
1180 68 -1212 0
1180 -68 1212 0
-1180 68 1212 0
-1181 -69 -1213 0
1181 69 -1213 0
1181 -69 1213 0
-1181 69 1213 0
-1182 -70 -1214 0
1182 70 -1214 0
1182 -70 1214 0
-1182 70 1214 0
-1183 -71 -1215 0
1183 71 -1215 0
1183 -71 1215 0
-1183 71 1215 0
-1184 -72 -1216 0
1184 72 -1216 0
1184 -72 1216 0
-1184 72 1216 0
-961 -1185 -1217 0
961 1185 -1217 0
961 -1185 1217 0
-961 1185 1217 0
-962 -1186 -1218 0
962 1186 -1218 0
962 -1186 1218 0
-962 1186 1218 0
-963 -1187 -1219 0
963 1187 -1219 0
963 -1187 1219 0
-963 1187 1219 0
-964 -1188 -1220 0
964 1188 -1220 0
964 -1188 1220 0
-964 1188 1220 0
-965 -1189 -1221 0
965 1189 -1221 0
965 -1189 1221 0
-965 1189 1221 0
-966 -1190 -1222 0
966 1190 -1222 0
966 -1190 1222 0
-966 1190 1222 0
-967 -1191 -1223 0
967 1191 -1223 0
967 -1191 1223 0
-967 1191 1223 0
-968 -1192 -1224 0
968 1192 -1224 0
968 -1192 1224 0
-968 1192 1224 0
-969 -1193 -1225 0
969 1193 -1225 0
969 -1193 1225 0
-969 1193 1225 0
-970 -1194 -1226 0
970 1194 -1226 0
970 -1194 1226 0
-970 1194 1226 0
-971 -1195 -1227 0
971 1195 -1227 0
971 -1195 1227 0
-971 1195 1227 0
-972 -1196 -1228 0
972 1196 -1228 0
972 -1196 1228 0
-972 1196 1228 0
-973 -1197 -1229 0
973 1197 -1229 0
973 -1197 1229 0
-973 1197 1229 0
-974 -1198 -1230 0
974 1198 -1230 0
974 -1198 1230 0
-974 1198 1230 0
-975 -1199 -1231 0
975 1199 -1231 0
975 -1199 1231 0
-975 1199 1231 0
-976 -1200 -1232 0
976 1200 -1232 0
976 -1200 1232 0
-976 1200 1232 0
-977 -1201 -1233 0
977 1201 -1233 0
977 -1201 1233 0
-977 1201 1233 0
-978 -1202 -1234 0
978 1202 -1234 0
978 -1202 1234 0
-978 1202 1234 0
-979 -1203 -1235 0
979 1203 -1235 0
979 -1203 1235 0
-979 1203 1235 0
-980 -1204 -1236 0
980 1204 -1236 0
980 -1204 1236 0
-980 1204 1236 0
-981 -1205 -1237 0
981 1205 -1237 0
981 -1205 1237 0
-981 1205 1237 0
-982 -1206 -1238 0
982 1206 -1238 0
982 -1206 1238 0
-982 1206 1238 0
-983 -1207 -1239 0
983 1207 -1239 0
983 -1207 1239 0
-983 1207 1239 0
-984 -1208 -1240 0
984 1208 -1240 0
984 -1208 1240 0
-984 1208 1240 0
-985 -1209 -1241 0
985 1209 -1241 0
985 -1209 1241 0
-985 1209 1241 0
-986 -1210 -1242 0
986 1210 -1242 0
986 -1210 1242 0
-986 1210 1242 0
-987 -1211 -1243 0
987 1211 -1243 0
987 -1211 1243 0
-987 1211 1243 0
-988 -1212 -1244 0
988 1212 -1244 0
988 -1212 1244 0
-988 1212 1244 0
-989 -1213 -1245 0
989 1213 -1245 0
989 -1213 1245 0
-989 1213 1245 0
-990 -1214 -1246 0
990 1214 -1246 0
990 -1214 1246 0
-990 1214 1246 0
-991 -1215 -1247 0
991 1215 -1247 0
991 -1215 1247 0
-991 1215 1247 0
-992 -1216 -1248 0
992 1216 -1248 0
992 -1216 1248 0
-992 1216 1248 0
-1249 1217 0
-1249 70 0
-1217 -70 1249 0
-1250 1218 0
-1250 71 0
-1218 -71 1250 0
-1251 1219 0
-1251 72 0
-1219 -72 1251 0
-1252 1220 0
-1252 73 0
-1220 -73 1252 0
-1253 1221 0
-1253 74 0
-1221 -74 1253 0
-1254 1222 0
-1254 75 0
-1222 -75 1254 0
-1255 1223 0
-1255 76 0
-1223 -76 1255 0
-1256 1224 0
-1256 77 0
-1224 -77 1256 0
-1257 1225 0
-1257 78 0
-1225 -78 1257 0
-1258 1226 0
-1258 79 0
-1226 -79 1258 0
-1259 1227 0
-1259 80 0
-1227 -80 1259 0
-1260 1228 0
-1260 81 0
-1228 -81 1260 0
-1261 1229 0
-1261 82 0
-1229 -82 1261 0
-1262 1230 0
-1262 83 0
-1230 -83 1262 0
-1263 1231 0
-1263 84 0
-1231 -84 1263 0
-1264 1232 0
-1264 85 0
-1232 -85 1264 0
-1265 1233 0
-1265 86 0
-1233 -86 1265 0
-1266 1234 0
-1266 87 0
-1234 -87 1266 0
-1267 1235 0
-1267 88 0
-1235 -88 1267 0
-1268 1236 0
-1268 89 0
-1236 -89 1268 0
-1269 1237 0
-1269 90 0
-1237 -90 1269 0
-1270 1238 0
-1270 91 0
-1238 -91 1270 0
-1271 1239 0
-1271 92 0
-1239 -92 1271 0
-1272 1240 0
-1272 93 0
-1240 -93 1272 0
-1273 1241 0
-1273 94 0
-1241 -94 1273 0
-1274 1242 0
-1274 95 0
-1242 -95 1274 0
-1275 1243 0
-1275 96 0
-1243 -96 1275 0
-1276 1244 0
-1276 65 0
-1244 -65 1276 0
-1277 1245 0
-1277 66 0
-1245 -66 1277 0
-1278 1246 0
-1278 67 0
-1246 -67 1278 0
-1279 1247 0
-1279 68 0
-1247 -68 1279 0
-1280 1248 0
-1280 69 0
-1248 -69 1280 0
-1249 -1246 -1281 0
1249 1246 -1281 0
1249 -1246 1281 0
-1249 1246 1281 0
-1250 -1247 -1282 0
1250 1247 -1282 0
1250 -1247 1282 0
-1250 1247 1282 0
-1251 -1248 -1283 0
1251 1248 -1283 0
1251 -1248 1283 0
-1251 1248 1283 0
-1252 -1217 -1284 0
1252 1217 -1284 0
1252 -1217 1284 0
-1252 1217 1284 0
-1253 -1218 -1285 0
1253 1218 -1285 0
1253 -1218 1285 0
-1253 1218 1285 0
-1254 -1219 -1286 0
1254 1219 -1286 0
1254 -1219 1286 0
-1254 1219 1286 0
-1255 -1220 -1287 0
1255 1220 -1287 0
1255 -1220 1287 0
-1255 1220 1287 0
-1256 -1221 -1288 0
1256 1221 -1288 0
1256 -1221 1288 0
-1256 1221 1288 0
-1257 -1222 -1289 0
1257 1222 -1289 0
1257 -1222 1289 0
-1257 1222 1289 0
-1258 -1223 -1290 0
1258 1223 -1290 0
1258 -1223 1290 0
-1258 1223 1290 0
-1259 -1224 -1291 0
1259 1224 -1291 0
1259 -1224 1291 0
-1259 1224 1291 0
-1260 -1225 -1292 0
1260 1225 -1292 0
1260 -1225 1292 0
-1260 1225 1292 0
-1261 -1226 -1293 0
1261 1226 -1293 0
1261 -1226 1293 0
-1261 1226 1293 0
-1262 -1227 -1294 0
1262 1227 -1294 0
1262 -1227 1294 0
-1262 1227 1294 0
-1263 -1228 -1295 0
1263 1228 -1295 0
1263 -1228 1295 0
-1263 1228 1295 0
-1264 -1229 -1296 0
1264 1229 -1296 0
1264 -1229 1296 0
-1264 1229 1296 0
-1265 -1230 -1297 0
1265 1230 -1297 0
1265 -1230 1297 0
-1265 1230 1297 0
-1266 -1231 -1298 0
1266 1231 -1298 0
1266 -1231 1298 0
-1266 1231 1298 0
-1267 -1232 -1299 0
1267 1232 -1299 0
1267 -1232 1299 0
-1267 1232 1299 0
-1268 -1233 -1300 0
1268 1233 -1300 0
1268 -1233 1300 0
-1268 1233 1300 0
-1269 -1234 -1301 0
1269 1234 -1301 0
1269 -1234 1301 0
-1269 1234 1301 0
-1270 -1235 -1302 0
1270 1235 -1302 0
1270 -1235 1302 0
-1270 1235 1302 0
-1271 -1236 -1303 0
1271 1236 -1303 0
1271 -1236 1303 0
-1271 1236 1303 0
-1272 -1237 -1304 0
1272 1237 -1304 0
1272 -1237 1304 0
-1272 1237 1304 0
-1273 -1238 -1305 0
1273 1238 -1305 0
1273 -1238 1305 0
-1273 1238 1305 0
-1274 -1239 -1306 0
1274 1239 -1306 0
1274 -1239 1306 0
-1274 1239 1306 0
-1275 -1240 -1307 0
1275 1240 -1307 0
1275 -1240 1307 0
-1275 1240 1307 0
-1276 -1241 -1308 0
1276 1241 -1308 0
1276 -1241 1308 0
-1276 1241 1308 0
-1277 -1242 -1309 0
1277 1242 -1309 0
1277 -1242 1309 0
-1277 1242 1309 0
-1278 -1243 -1310 0
1278 1243 -1310 0
1278 -1243 1310 0
-1278 1243 1310 0
-1279 -1244 -1311 0
1279 1244 -1311 0
1279 -1244 1311 0
-1279 1244 1311 0
-1280 -1245 -1312 0
1280 1245 -1312 0
1280 -1245 1312 0
-1280 1245 1312 0
-1281 -70 -1313 0
1281 70 -1313 0
1281 -70 1313 0
-1281 70 1313 0
-1282 -71 -1314 0
1282 71 -1314 0
1282 -71 1314 0
-1282 71 1314 0
-1283 -72 -1315 0
1283 72 -1315 0
1283 -72 1315 0
-1283 72 1315 0
-1284 -73 -1316 0
1284 73 -1316 0
1284 -73 1316 0
-1284 73 1316 0
-1285 -74 -1317 0
1285 74 -1317 0
1285 -74 1317 0
-1285 74 1317 0
-1286 -75 -1318 0
1286 75 -1318 0
1286 -75 1318 0
-1286 75 1318 0
-1287 -76 -1319 0
1287 76 -1319 0
1287 -76 1319 0
-1287 76 1319 0
-1288 -77 -1320 0
1288 77 -1320 0
1288 -77 1320 0
-1288 77 1320 0
-1289 -78 -1321 0
1289 78 -1321 0
1289 -78 1321 0
-1289 78 1321 0
-1290 -79 -1322 0
1290 79 -1322 0
1290 -79 1322 0
-1290 79 1322 0
-1291 -80 -1323 0
1291 80 -1323 0
1291 -80 1323 0
-1291 80 1323 0
-1292 -81 -1324 0
1292 81 -1324 0
1292 -81 1324 0
-1292 81 1324 0
-1293 -82 -1325 0
1293 82 -1325 0
1293 -82 1325 0
-1293 82 1325 0
-1294 -83 -1326 0
1294 83 -1326 0
1294 -83 1326 0
-1294 83 1326 0
-1295 -84 -1327 0
1295 84 -1327 0
1295 -84 1327 0
-1295 84 1327 0
-1296 -85 -1328 0
1296 85 -1328 0
1296 -85 1328 0
-1296 85 1328 0
-1297 -86 -1329 0
1297 86 -1329 0
1297 -86 1329 0
-1297 86 1329 0
-1298 -87 -1330 0
1298 87 -1330 0
1298 -87 1330 0
-1298 87 1330 0
-1299 -88 -1331 0
1299 88 -1331 0
1299 -88 1331 0
-1299 88 1331 0
-1300 -89 -1332 0
1300 89 -1332 0
1300 -89 1332 0
-1300 89 1332 0
-1301 -90 -1333 0
1301 90 -1333 0
1301 -90 1333 0
-1301 90 1333 0
-1302 -91 -1334 0
1302 91 -1334 0
1302 -91 1334 0
-1302 91 1334 0
-1303 -92 -1335 0
1303 92 -1335 0
1303 -92 1335 0
-1303 92 1335 0
-1304 -93 -1336 0
1304 93 -1336 0
1304 -93 1336 0
-1304 93 1336 0
-1305 -94 -1337 0
1305 94 -1337 0
1305 -94 1337 0
-1305 94 1337 0
-1306 -95 -1338 0
1306 95 -1338 0
1306 -95 1338 0
-1306 95 1338 0
-1307 -96 -1339 0
1307 96 -1339 0
1307 -96 1339 0
-1307 96 1339 0
-1308 -65 -1340 0
1308 65 -1340 0
1308 -65 1340 0
-1308 65 1340 0
-1309 -66 -1341 0
1309 66 -1341 0
1309 -66 1341 0
-1309 66 1341 0
-1310 -67 -1342 0
1310 67 -1342 0
1310 -67 1342 0
-1310 67 1342 0
-1311 -68 -1343 0
1311 68 -1343 0
1311 -68 1343 0
-1311 68 1343 0
-1312 -69 -1344 0
1312 69 -1344 0
1312 -69 1344 0
-1312 69 1344 0
-1089 -1313 -1345 0
1089 1313 -1345 0
1089 -1313 1345 0
-1089 1313 1345 0
-1090 -1314 -1346 0
1090 1314 -1346 0
1090 -1314 1346 0
-1090 1314 1346 0
-1091 -1315 -1347 0
1091 1315 -1347 0
1091 -1315 1347 0
-1091 1315 1347 0
-1092 -1316 -1348 0
1092 1316 -1348 0
1092 -1316 1348 0
-1092 1316 1348 0
-1093 -1317 -1349 0
1093 1317 -1349 0
1093 -1317 1349 0
-1093 1317 1349 0
-1094 -1318 -1350 0
1094 1318 -1350 0
1094 -1318 1350 0
-1094 1318 1350 0
-1095 -1319 -1351 0
1095 1319 -1351 0
1095 -1319 1351 0
-1095 1319 1351 0
-1096 -1320 -1352 0
1096 1320 -1352 0
1096 -1320 1352 0
-1096 1320 1352 0
-1097 -1321 -1353 0
1097 1321 -1353 0
1097 -1321 1353 0
-1097 1321 1353 0
-1098 -1322 -1354 0
1098 1322 -1354 0
1098 -1322 1354 0
-1098 1322 1354 0
-1099 -1323 -1355 0
1099 1323 -1355 0
1099 -1323 1355 0
-1099 1323 1355 0
-1100 -1324 -1356 0
1100 1324 -1356 0
1100 -1324 1356 0
-1100 1324 1356 0
-1101 -1325 -1357 0
1101 1325 -1357 0
1101 -1325 1357 0
-1101 1325 1357 0
-1102 -1326 -1358 0
1102 1326 -1358 0
1102 -1326 1358 0
-1102 1326 1358 0
-1103 -1327 -1359 0
1103 1327 -1359 0
1103 -1327 1359 0
-1103 1327 1359 0
-1104 -1328 -1360 0
1104 1328 -1360 0
1104 -1328 1360 0
-1104 1328 1360 0
-1105 -1329 -1361 0
1105 1329 -1361 0
1105 -1329 1361 0
-1105 1329 1361 0
-1106 -1330 -1362 0
1106 1330 -1362 0
1106 -1330 1362 0
-1106 1330 1362 0
-1107 -1331 -1363 0
1107 1331 -1363 0
1107 -1331 1363 0
-1107 1331 1363 0
-1108 -1332 -1364 0
1108 1332 -1364 0
1108 -1332 1364 0
-1108 1332 1364 0
-1109 -1333 -1365 0
1109 1333 -1365 0
1109 -1333 1365 0
-1109 1333 1365 0
-1110 -1334 -1366 0
1110 1334 -1366 0
1110 -1334 1366 0
-1110 1334 1366 0
-1111 -1335 -1367 0
1111 1335 -1367 0
1111 -1335 1367 0
-1111 1335 1367 0
-1112 -1336 -1368 0
1112 1336 -1368 0
1112 -1336 1368 0
-1112 1336 1368 0
-1113 -1337 -1369 0
1113 1337 -1369 0
1113 -1337 1369 0
-1113 1337 1369 0
-1114 -1338 -1370 0
1114 1338 -1370 0
1114 -1338 1370 0
-1114 1338 1370 0
-1115 -1339 -1371 0
1115 1339 -1371 0
1115 -1339 1371 0
-1115 1339 1371 0
-1116 -1340 -1372 0
1116 1340 -1372 0
1116 -1340 1372 0
-1116 1340 1372 0
-1117 -1341 -1373 0
1117 1341 -1373 0
1117 -1341 1373 0
-1117 1341 1373 0
-1118 -1342 -1374 0
1118 1342 -1374 0
1118 -1342 1374 0
-1118 1342 1374 0
-1119 -1343 -1375 0
1119 1343 -1375 0
1119 -1343 1375 0
-1119 1343 1375 0
-1120 -1344 -1376 0
1120 1344 -1376 0
1120 -1344 1376 0
-1120 1344 1376 0
-1377 1345 0
-1377 67 0
-1345 -67 1377 0
-1378 1346 0
-1378 68 0
-1346 -68 1378 0
-1379 1347 0
-1379 69 0
-1347 -69 1379 0
-1380 1348 0
-1380 70 0
-1348 -70 1380 0
-1381 1349 0
-1381 71 0
-1349 -71 1381 0
-1382 1350 0
-1382 72 0
-1350 -72 1382 0
-1383 1351 0
-1383 73 0
-1351 -73 1383 0
-1384 1352 0
-1384 74 0
-1352 -74 1384 0
-1385 1353 0
-1385 75 0
-1353 -75 1385 0
-1386 1354 0
-1386 76 0
-1354 -76 1386 0
-1387 1355 0
-1387 77 0
-1355 -77 1387 0
-1388 1356 0
-1388 78 0
-1356 -78 1388 0
-1389 1357 0
-1389 79 0
-1357 -79 1389 0
-1390 1358 0
-1390 80 0
-1358 -80 1390 0
-1391 1359 0
-1391 81 0
-1359 -81 1391 0
-1392 1360 0
-1392 82 0
-1360 -82 1392 0
-1393 1361 0
-1393 83 0
-1361 -83 1393 0
-1394 1362 0
-1394 84 0
-1362 -84 1394 0
-1395 1363 0
-1395 85 0
-1363 -85 1395 0
-1396 1364 0
-1396 86 0
-1364 -86 1396 0
-1397 1365 0
-1397 87 0
-1365 -87 1397 0
-1398 1366 0
-1398 88 0
-1366 -88 1398 0
-1399 1367 0
-1399 89 0
-1367 -89 1399 0
-1400 1368 0
-1400 90 0
-1368 -90 1400 0
-1401 1369 0
-1401 91 0
-1369 -91 1401 0
-1402 1370 0
-1402 92 0
-1370 -92 1402 0
-1403 1371 0
-1403 93 0
-1371 -93 1403 0
-1404 1372 0
-1404 94 0
-1372 -94 1404 0
-1405 1373 0
-1405 95 0
-1373 -95 1405 0
-1406 1374 0
-1406 96 0
-1374 -96 1406 0
-1407 1375 0
-1407 65 0
-1375 -65 1407 0
-1408 1376 0
-1408 66 0
-1376 -66 1408 0
-1377 -1374 -1409 0
1377 1374 -1409 0
1377 -1374 1409 0
-1377 1374 1409 0
-1378 -1375 -1410 0
1378 1375 -1410 0
1378 -1375 1410 0
-1378 1375 1410 0
-1379 -1376 -1411 0
1379 1376 -1411 0
1379 -1376 1411 0
-1379 1376 1411 0
-1380 -1345 -1412 0
1380 1345 -1412 0
1380 -1345 1412 0
-1380 1345 1412 0
-1381 -1346 -1413 0
1381 1346 -1413 0
1381 -1346 1413 0
-1381 1346 1413 0
-1382 -1347 -1414 0
1382 1347 -1414 0
1382 -1347 1414 0
-1382 1347 1414 0
-1383 -1348 -1415 0
1383 1348 -1415 0
1383 -1348 1415 0
-1383 1348 1415 0
-1384 -1349 -1416 0
1384 1349 -1416 0
1384 -1349 1416 0
-1384 1349 1416 0
-1385 -1350 -1417 0
1385 1350 -1417 0
1385 -1350 1417 0
-1385 1350 1417 0
-1386 -1351 -1418 0
1386 1351 -1418 0
1386 -1351 1418 0
-1386 1351 1418 0
-1387 -1352 -1419 0
1387 1352 -1419 0
1387 -1352 1419 0
-1387 1352 1419 0
-1388 -1353 -1420 0
1388 1353 -1420 0
1388 -1353 1420 0
-1388 1353 1420 0
-1389 -1354 -1421 0
1389 1354 -1421 0
1389 -1354 1421 0
-1389 1354 1421 0
-1390 -1355 -1422 0
1390 1355 -1422 0
1390 -1355 1422 0
-1390 1355 1422 0
-1391 -1356 -1423 0
1391 1356 -1423 0
1391 -1356 1423 0
-1391 1356 1423 0
-1392 -1357 -1424 0
1392 1357 -1424 0
1392 -1357 1424 0
-1392 1357 1424 0
-1393 -1358 -1425 0
1393 1358 -1425 0
1393 -1358 1425 0
-1393 1358 1425 0
-1394 -1359 -1426 0
1394 1359 -1426 0
1394 -1359 1426 0
-1394 1359 1426 0
-1395 -1360 -1427 0
1395 1360 -1427 0
1395 -1360 1427 0
-1395 1360 1427 0
-1396 -1361 -1428 0
1396 1361 -1428 0
1396 -1361 1428 0
-1396 1361 1428 0
-1397 -1362 -1429 0
1397 1362 -1429 0
1397 -1362 1429 0
-1397 1362 1429 0
-1398 -1363 -1430 0
1398 1363 -1430 0
1398 -1363 1430 0
-1398 1363 1430 0
-1399 -1364 -1431 0
1399 1364 -1431 0
1399 -1364 1431 0
-1399 1364 1431 0
-1400 -1365 -1432 0
1400 1365 -1432 0
1400 -1365 1432 0
-1400 1365 1432 0
-1401 -1366 -1433 0
1401 1366 -1433 0
1401 -1366 1433 0
-1401 1366 1433 0
-1402 -1367 -1434 0
1402 1367 -1434 0
1402 -1367 1434 0
-1402 1367 1434 0
-1403 -1368 -1435 0
1403 1368 -1435 0
1403 -1368 1435 0
-1403 1368 1435 0
-1404 -1369 -1436 0
1404 1369 -1436 0
1404 -1369 1436 0
-1404 1369 1436 0
-1405 -1370 -1437 0
1405 1370 -1437 0
1405 -1370 1437 0
-1405 1370 1437 0
-1406 -1371 -1438 0
1406 1371 -1438 0
1406 -1371 1438 0
-1406 1371 1438 0
-1407 -1372 -1439 0
1407 1372 -1439 0
1407 -1372 1439 0
-1407 1372 1439 0
-1408 -1373 -1440 0
1408 1373 -1440 0
1408 -1373 1440 0
-1408 1373 1440 0
-1409 -67 -1441 0
1409 67 -1441 0
1409 -67 1441 0
-1409 67 1441 0
-1410 -68 -1442 0
1410 68 -1442 0
1410 -68 1442 0
-1410 68 1442 0
-1411 -69 -1443 0
1411 69 -1443 0
1411 -69 1443 0
-1411 69 1443 0
-1412 -70 -1444 0
1412 70 -1444 0
1412 -70 1444 0
-1412 70 1444 0
-1413 -71 -1445 0
1413 71 -1445 0
1413 -71 1445 0
-1413 71 1445 0
-1414 -72 -1446 0
1414 72 -1446 0
1414 -72 1446 0
-1414 72 1446 0
-1415 -73 -1447 0
1415 73 -1447 0
1415 -73 1447 0
-1415 73 1447 0
-1416 -74 -1448 0
1416 74 -1448 0
1416 -74 1448 0
-1416 74 1448 0
-1417 -75 -1449 0
1417 75 -1449 0
1417 -75 1449 0
-1417 75 1449 0
-1418 -76 -1450 0
1418 76 -1450 0
1418 -76 1450 0
-1418 76 1450 0
-1419 -77 -1451 0
1419 77 -1451 0
1419 -77 1451 0
-1419 77 1451 0
-1420 -78 -1452 0
1420 78 -1452 0
1420 -78 1452 0
-1420 78 1452 0
-1421 -79 -1453 0
1421 79 -1453 0
1421 -79 1453 0
-1421 79 1453 0
-1422 -80 -1454 0
1422 80 -1454 0
1422 -80 1454 0
-1422 80 1454 0
-1423 -81 -1455 0
1423 81 -1455 0
1423 -81 1455 0
-1423 81 1455 0
-1424 -82 -1456 0
1424 82 -1456 0
1424 -82 1456 0
-1424 82 1456 0
-1425 -83 -1457 0
1425 83 -1457 0
1425 -83 1457 0
-1425 83 1457 0
-1426 -84 -1458 0
1426 84 -1458 0
1426 -84 1458 0
-1426 84 1458 0
-1427 -85 -1459 0
1427 85 -1459 0
1427 -85 1459 0
-1427 85 1459 0
-1428 -86 -1460 0
1428 86 -1460 0
1428 -86 1460 0
-1428 86 1460 0
-1429 -87 -1461 0
1429 87 -1461 0
1429 -87 1461 0
-1429 87 1461 0
-1430 -88 -1462 0
1430 88 -1462 0
1430 -88 1462 0
-1430 88 1462 0
-1431 -89 -1463 0
1431 89 -1463 0
1431 -89 1463 0
-1431 89 1463 0
-1432 -90 -1464 0
1432 90 -1464 0
1432 -90 1464 0
-1432 90 1464 0
-1433 -91 -1465 0
1433 91 -1465 0
1433 -91 1465 0
-1433 91 1465 0
-1434 -92 -1466 0
1434 92 -1466 0
1434 -92 1466 0
-1434 92 1466 0
-1435 -93 -1467 0
1435 93 -1467 0
1435 -93 1467 0
-1435 93 1467 0
-1436 -94 -1468 0
1436 94 -1468 0
1436 -94 1468 0
-1436 94 1468 0
-1437 -95 -1469 0
1437 95 -1469 0
1437 -95 1469 0
-1437 95 1469 0
-1438 -96 -1470 0
1438 96 -1470 0
1438 -96 1470 0
-1438 96 1470 0
-1439 -65 -1471 0
1439 65 -1471 0
1439 -65 1471 0
-1439 65 1471 0
-1440 -66 -1472 0
1440 66 -1472 0
1440 -66 1472 0
-1440 66 1472 0
-1217 -1441 -1473 0
1217 1441 -1473 0
1217 -1441 1473 0
-1217 1441 1473 0
-1218 -1442 -1474 0
1218 1442 -1474 0
1218 -1442 1474 0
-1218 1442 1474 0
-1219 -1443 -1475 0
1219 1443 -1475 0
1219 -1443 1475 0
-1219 1443 1475 0
-1220 -1444 -1476 0
1220 1444 -1476 0
1220 -1444 1476 0
-1220 1444 1476 0
-1221 -1445 -1477 0
1221 1445 -1477 0
1221 -1445 1477 0
-1221 1445 1477 0
-1222 -1446 -1478 0
1222 1446 -1478 0
1222 -1446 1478 0
-1222 1446 1478 0
-1223 -1447 -1479 0
1223 1447 -1479 0
1223 -1447 1479 0
-1223 1447 1479 0
-1224 -1448 -1480 0
1224 1448 -1480 0
1224 -1448 1480 0
-1224 1448 1480 0
-1225 -1449 -1481 0
1225 1449 -1481 0
1225 -1449 1481 0
-1225 1449 1481 0
-1226 -1450 -1482 0
1226 1450 -1482 0
1226 -1450 1482 0
-1226 1450 1482 0
-1227 -1451 -1483 0
1227 1451 -1483 0
1227 -1451 1483 0
-1227 1451 1483 0
-1228 -1452 -1484 0
1228 1452 -1484 0
1228 -1452 1484 0
-1228 1452 1484 0
-1229 -1453 -1485 0
1229 1453 -1485 0
1229 -1453 1485 0
-1229 1453 1485 0
-1230 -1454 -1486 0
1230 1454 -1486 0
1230 -1454 1486 0
-1230 1454 1486 0
-1231 -1455 -1487 0
1231 1455 -1487 0
1231 -1455 1487 0
-1231 1455 1487 0
-1232 -1456 -1488 0
1232 1456 -1488 0
1232 -1456 1488 0
-1232 1456 1488 0
-1233 -1457 -1489 0
1233 1457 -1489 0
1233 -1457 1489 0
-1233 1457 1489 0
-1234 -1458 -1490 0
1234 1458 -1490 0
1234 -1458 1490 0
-1234 1458 1490 0
-1235 -1459 -1491 0
1235 1459 -1491 0
1235 -1459 1491 0
-1235 1459 1491 0
-1236 -1460 -1492 0
1236 1460 -1492 0
1236 -1460 1492 0
-1236 1460 1492 0
-1237 -1461 -1493 0
1237 1461 -1493 0
1237 -1461 1493 0
-1237 1461 1493 0
-1238 -1462 -1494 0
1238 1462 -1494 0
1238 -1462 1494 0
-1238 1462 1494 0
-1239 -1463 -1495 0
1239 1463 -1495 0
1239 -1463 1495 0
-1239 1463 1495 0
-1240 -1464 -1496 0
1240 1464 -1496 0
1240 -1464 1496 0
-1240 1464 1496 0
-1241 -1465 -1497 0
1241 1465 -1497 0
1241 -1465 1497 0
-1241 1465 1497 0
-1242 -1466 -1498 0
1242 1466 -1498 0
1242 -1466 1498 0
-1242 1466 1498 0
-1243 -1467 -1499 0
1243 1467 -1499 0
1243 -1467 1499 0
-1243 1467 1499 0
-1244 -1468 -1500 0
1244 1468 -1500 0
1244 -1468 1500 0
-1244 1468 1500 0
-1245 -1469 -1501 0
1245 1469 -1501 0
1245 -1469 1501 0
-1245 1469 1501 0
-1246 -1470 -1502 0
1246 1470 -1502 0
1246 -1470 1502 0
-1246 1470 1502 0
-1247 -1471 -1503 0
1247 1471 -1503 0
1247 -1471 1503 0
-1247 1471 1503 0
-1248 -1472 -1504 0
1248 1472 -1504 0
1248 -1472 1504 0
-1248 1472 1504 0
-1505 1473 0
-1505 96 0
-1473 -96 1505 0
-1506 1474 0
-1506 65 0
-1474 -65 1506 0
-1507 1475 0
-1507 66 0
-1475 -66 1507 0
-1508 1476 0
-1508 67 0
-1476 -67 1508 0
-1509 1477 0
-1509 68 0
-1477 -68 1509 0
-1510 1478 0
-1510 69 0
-1478 -69 1510 0
-1511 1479 0
-1511 70 0
-1479 -70 1511 0
-1512 1480 0
-1512 71 0
-1480 -71 1512 0
-1513 1481 0
-1513 72 0
-1481 -72 1513 0
-1514 1482 0
-1514 73 0
-1482 -73 1514 0
-1515 1483 0
-1515 74 0
-1483 -74 1515 0
-1516 1484 0
-1516 75 0
-1484 -75 1516 0
-1517 1485 0
-1517 76 0
-1485 -76 1517 0
-1518 1486 0
-1518 77 0
-1486 -77 1518 0
-1519 1487 0
-1519 78 0
-1487 -78 1519 0
-1520 1488 0
-1520 79 0
-1488 -79 1520 0
-1521 1489 0
-1521 80 0
-1489 -80 1521 0
-1522 1490 0
-1522 81 0
-1490 -81 1522 0
-1523 1491 0
-1523 82 0
-1491 -82 1523 0
-1524 1492 0
-1524 83 0
-1492 -83 1524 0
-1525 1493 0
-1525 84 0
-1493 -84 1525 0
-1526 1494 0
-1526 85 0
-1494 -85 1526 0
-1527 1495 0
-1527 86 0
-1495 -86 1527 0
-1528 1496 0
-1528 87 0
-1496 -87 1528 0
-1529 1497 0
-1529 88 0
-1497 -88 1529 0
-1530 1498 0
-1530 89 0
-1498 -89 1530 0
-1531 1499 0
-1531 90 0
-1499 -90 1531 0
-1532 1500 0
-1532 91 0
-1500 -91 1532 0
-1533 1501 0
-1533 92 0
-1501 -92 1533 0
-1534 1502 0
-1534 93 0
-1502 -93 1534 0
-1535 1503 0
-1535 94 0
-1503 -94 1535 0
-1536 1504 0
-1536 95 0
-1504 -95 1536 0
-1505 -1502 -1537 0
1505 1502 -1537 0
1505 -1502 1537 0
-1505 1502 1537 0
-1506 -1503 -1538 0
1506 1503 -1538 0
1506 -1503 1538 0
-1506 1503 1538 0
-1507 -1504 -1539 0
1507 1504 -1539 0
1507 -1504 1539 0
-1507 1504 1539 0
-1508 -1473 -1540 0
1508 1473 -1540 0
1508 -1473 1540 0
-1508 1473 1540 0
-1509 -1474 -1541 0
1509 1474 -1541 0
1509 -1474 1541 0
-1509 1474 1541 0
-1510 -1475 -1542 0
1510 1475 -1542 0
1510 -1475 1542 0
-1510 1475 1542 0
-1511 -1476 -1543 0
1511 1476 -1543 0
1511 -1476 1543 0
-1511 1476 1543 0
-1512 -1477 -1544 0
1512 1477 -1544 0
1512 -1477 1544 0
-1512 1477 1544 0
-1513 -1478 -1545 0
1513 1478 -1545 0
1513 -1478 1545 0
-1513 1478 1545 0
-1514 -1479 -1546 0
1514 1479 -1546 0
1514 -1479 1546 0
-1514 1479 1546 0
-1515 -1480 -1547 0
1515 1480 -1547 0
1515 -1480 1547 0
-1515 1480 1547 0
-1516 -1481 -1548 0
1516 1481 -1548 0
1516 -1481 1548 0
-1516 1481 1548 0
-1517 -1482 -1549 0
1517 1482 -1549 0
1517 -1482 1549 0
-1517 1482 1549 0
-1518 -1483 -1550 0
1518 1483 -1550 0
1518 -1483 1550 0
-1518 1483 1550 0
-1519 -1484 -1551 0
1519 1484 -1551 0
1519 -1484 1551 0
-1519 1484 1551 0
-1520 -1485 -1552 0
1520 1485 -1552 0
1520 -1485 1552 0
-1520 1485 1552 0
-1521 -1486 -1553 0
1521 1486 -1553 0
1521 -1486 1553 0
-1521 1486 1553 0
-1522 -1487 -1554 0
1522 1487 -1554 0
1522 -1487 1554 0
-1522 1487 1554 0
-1523 -1488 -1555 0
1523 1488 -1555 0
1523 -1488 1555 0
-1523 1488 1555 0
-1524 -1489 -1556 0
1524 1489 -1556 0
1524 -1489 1556 0
-1524 1489 1556 0
-1525 -1490 -1557 0
1525 1490 -1557 0
1525 -1490 1557 0
-1525 1490 1557 0
-1526 -1491 -1558 0
1526 1491 -1558 0
1526 -1491 1558 0
-1526 1491 1558 0
-1527 -1492 -1559 0
1527 1492 -1559 0
1527 -1492 1559 0
-1527 1492 1559 0
-1528 -1493 -1560 0
1528 1493 -1560 0
1528 -1493 1560 0
-1528 1493 1560 0
-1529 -1494 -1561 0
1529 1494 -1561 0
1529 -1494 1561 0
-1529 1494 1561 0
-1530 -1495 -1562 0
1530 1495 -1562 0
1530 -1495 1562 0
-1530 1495 1562 0
-1531 -1496 -1563 0
1531 1496 -1563 0
1531 -1496 1563 0
-1531 1496 1563 0
-1532 -1497 -1564 0
1532 1497 -1564 0
1532 -1497 1564 0
-1532 1497 1564 0
-1533 -1498 -1565 0
1533 1498 -1565 0
1533 -1498 1565 0
-1533 1498 1565 0
-1534 -1499 -1566 0
1534 1499 -1566 0
1534 -1499 1566 0
-1534 1499 1566 0
-1535 -1500 -1567 0
1535 1500 -1567 0
1535 -1500 1567 0
-1535 1500 1567 0
-1536 -1501 -1568 0
1536 1501 -1568 0
1536 -1501 1568 0
-1536 1501 1568 0
-1537 -96 -1569 0
1537 96 -1569 0
1537 -96 1569 0
-1537 96 1569 0
-1538 -65 -1570 0
1538 65 -1570 0
1538 -65 1570 0
-1538 65 1570 0
-1539 -66 -1571 0
1539 66 -1571 0
1539 -66 1571 0
-1539 66 1571 0
-1540 -67 -1572 0
1540 67 -1572 0
1540 -67 1572 0
-1540 67 1572 0
-1541 -68 -1573 0
1541 68 -1573 0
1541 -68 1573 0
-1541 68 1573 0
-1542 -69 -1574 0
1542 69 -1574 0
1542 -69 1574 0
-1542 69 1574 0
-1543 -70 -1575 0
1543 70 -1575 0
1543 -70 1575 0
-1543 70 1575 0
-1544 -71 -1576 0
1544 71 -1576 0
1544 -71 1576 0
-1544 71 1576 0
-1545 -72 -1577 0
1545 72 -1577 0
1545 -72 1577 0
-1545 72 1577 0
-1546 -73 -1578 0
1546 73 -1578 0
1546 -73 1578 0
-1546 73 1578 0
-1547 -74 -1579 0
1547 74 -1579 0
1547 -74 1579 0
-1547 74 1579 0
-1548 -75 -1580 0
1548 75 -1580 0
1548 -75 1580 0
-1548 75 1580 0
-1549 -76 -1581 0
1549 76 -1581 0
1549 -76 1581 0
-1549 76 1581 0
-1550 -77 -1582 0
1550 77 -1582 0
1550 -77 1582 0
-1550 77 1582 0
-1551 -78 -1583 0
1551 78 -1583 0
1551 -78 1583 0
-1551 78 1583 0
-1552 -79 -1584 0
1552 79 -1584 0
1552 -79 1584 0
-1552 79 1584 0
-1553 -80 -1585 0
1553 80 -1585 0
1553 -80 1585 0
-1553 80 1585 0
-1554 -81 -1586 0
1554 81 -1586 0
1554 -81 1586 0
-1554 81 1586 0
-1555 -82 -1587 0
1555 82 -1587 0
1555 -82 1587 0
-1555 82 1587 0
-1556 -83 -1588 0
1556 83 -1588 0
1556 -83 1588 0
-1556 83 1588 0
-1557 -84 -1589 0
1557 84 -1589 0
1557 -84 1589 0
-1557 84 1589 0
-1558 -85 -1590 0
1558 85 -1590 0
1558 -85 1590 0
-1558 85 1590 0
-1559 -86 -1591 0
1559 86 -1591 0
1559 -86 1591 0
-1559 86 1591 0
-1560 -87 -1592 0
1560 87 -1592 0
1560 -87 1592 0
-1560 87 1592 0
-1561 -88 -1593 0
1561 88 -1593 0
1561 -88 1593 0
-1561 88 1593 0
-1562 -89 -1594 0
1562 89 -1594 0
1562 -89 1594 0
-1562 89 1594 0
-1563 -90 -1595 0
1563 90 -1595 0
1563 -90 1595 0
-1563 90 1595 0
-1564 -91 -1596 0
1564 91 -1596 0
1564 -91 1596 0
-1564 91 1596 0
-1565 -92 -1597 0
1565 92 -1597 0
1565 -92 1597 0
-1565 92 1597 0
-1566 -93 -1598 0
1566 93 -1598 0
1566 -93 1598 0
-1566 93 1598 0
-1567 -94 -1599 0
1567 94 -1599 0
1567 -94 1599 0
-1567 94 1599 0
-1568 -95 -1600 0
1568 95 -1600 0
1568 -95 1600 0
-1568 95 1600 0
-1345 -1569 -1601 0
1345 1569 -1601 0
1345 -1569 1601 0
-1345 1569 1601 0
-1346 -1570 -1602 0
1346 1570 -1602 0
1346 -1570 1602 0
-1346 1570 1602 0
-1347 -1571 -1603 0
1347 1571 -1603 0
1347 -1571 1603 0
-1347 1571 1603 0
-1348 -1572 -1604 0
1348 1572 -1604 0
1348 -1572 1604 0
-1348 1572 1604 0
-1349 -1573 -1605 0
1349 1573 -1605 0
1349 -1573 1605 0
-1349 1573 1605 0
-1350 -1574 -1606 0
1350 1574 -1606 0
1350 -1574 1606 0
-1350 1574 1606 0
-1351 -1575 -1607 0
1351 1575 -1607 0
1351 -1575 1607 0
-1351 1575 1607 0
-1352 -1576 -1608 0
1352 1576 -1608 0
1352 -1576 1608 0
-1352 1576 1608 0
-1353 -1577 -1609 0
1353 1577 -1609 0
1353 -1577 1609 0
-1353 1577 1609 0
-1354 -1578 -1610 0
1354 1578 -1610 0
1354 -1578 1610 0
-1354 1578 1610 0
-1355 -1579 -1611 0
1355 1579 -1611 0
1355 -1579 1611 0
-1355 1579 1611 0
-1356 -1580 -1612 0
1356 1580 -1612 0
1356 -1580 1612 0
-1356 1580 1612 0
-1357 -1581 -1613 0
1357 1581 -1613 0
1357 -1581 1613 0
-1357 1581 1613 0
-1358 -1582 -1614 0
1358 1582 -1614 0
1358 -1582 1614 0
-1358 1582 1614 0
-1359 -1583 -1615 0
1359 1583 -1615 0
1359 -1583 1615 0
-1359 1583 1615 0
-1360 -1584 -1616 0
1360 1584 -1616 0
1360 -1584 1616 0
-1360 1584 1616 0
-1361 -1585 -1617 0
1361 1585 -1617 0
1361 -1585 1617 0
-1361 1585 1617 0
-1362 -1586 -1618 0
1362 1586 -1618 0
1362 -1586 1618 0
-1362 1586 1618 0
-1363 -1587 -1619 0
1363 1587 -1619 0
1363 -1587 1619 0
-1363 1587 1619 0
-1364 -1588 -1620 0
1364 1588 -1620 0
1364 -1588 1620 0
-1364 1588 1620 0
-1365 -1589 -1621 0
1365 1589 -1621 0
1365 -1589 1621 0
-1365 1589 1621 0
-1366 -1590 -1622 0
1366 1590 -1622 0
1366 -1590 1622 0
-1366 1590 1622 0
-1367 -1591 -1623 0
1367 1591 -1623 0
1367 -1591 1623 0
-1367 1591 1623 0
-1368 -1592 -1624 0
1368 1592 -1624 0
1368 -1592 1624 0
-1368 1592 1624 0
-1369 -1593 -1625 0
1369 1593 -1625 0
1369 -1593 1625 0
-1369 1593 1625 0
-1370 -1594 -1626 0
1370 1594 -1626 0
1370 -1594 1626 0
-1370 1594 1626 0
-1371 -1595 -1627 0
1371 1595 -1627 0
1371 -1595 1627 0
-1371 1595 1627 0
-1372 -1596 -1628 0
1372 1596 -1628 0
1372 -1596 1628 0
-1372 1596 1628 0
-1373 -1597 -1629 0
1373 1597 -1629 0
1373 -1597 1629 0
-1373 1597 1629 0
-1374 -1598 -1630 0
1374 1598 -1630 0
1374 -1598 1630 0
-1374 1598 1630 0
-1375 -1599 -1631 0
1375 1599 -1631 0
1375 -1599 1631 0
-1375 1599 1631 0
-1376 -1600 -1632 0
1376 1600 -1632 0
1376 -1600 1632 0
-1376 1600 1632 0
-1633 1601 0
-1633 93 0
-1601 -93 1633 0
-1634 1602 0
-1634 94 0
-1602 -94 1634 0
-1635 1603 0
-1635 95 0
-1603 -95 1635 0
-1636 1604 0
-1636 96 0
-1604 -96 1636 0
-1637 1605 0
-1637 65 0
-1605 -65 1637 0
-1638 1606 0
-1638 66 0
-1606 -66 1638 0
-1639 1607 0
-1639 67 0
-1607 -67 1639 0
-1640 1608 0
-1640 68 0
-1608 -68 1640 0
-1641 1609 0
-1641 69 0
-1609 -69 1641 0
-1642 1610 0
-1642 70 0
-1610 -70 1642 0
-1643 1611 0
-1643 71 0
-1611 -71 1643 0
-1644 1612 0
-1644 72 0
-1612 -72 1644 0
-1645 1613 0
-1645 73 0
-1613 -73 1645 0
-1646 1614 0
-1646 74 0
-1614 -74 1646 0
-1647 1615 0
-1647 75 0
-1615 -75 1647 0
-1648 1616 0
-1648 76 0
-1616 -76 1648 0
-1649 1617 0
-1649 77 0
-1617 -77 1649 0
-1650 1618 0
-1650 78 0
-1618 -78 1650 0
-1651 1619 0
-1651 79 0
-1619 -79 1651 0
-1652 1620 0
-1652 80 0
-1620 -80 1652 0
-1653 1621 0
-1653 81 0
-1621 -81 1653 0
-1654 1622 0
-1654 82 0
-1622 -82 1654 0
-1655 1623 0
-1655 83 0
-1623 -83 1655 0
-1656 1624 0
-1656 84 0
-1624 -84 1656 0
-1657 1625 0
-1657 85 0
-1625 -85 1657 0
-1658 1626 0
-1658 86 0
-1626 -86 1658 0
-1659 1627 0
-1659 87 0
-1627 -87 1659 0
-1660 1628 0
-1660 88 0
-1628 -88 1660 0
-1661 1629 0
-1661 89 0
-1629 -89 1661 0
-1662 1630 0
-1662 90 0
-1630 -90 1662 0
-1663 1631 0
-1663 91 0
-1631 -91 1663 0
-1664 1632 0
-1664 92 0
-1632 -92 1664 0
-1633 -1630 -1665 0
1633 1630 -1665 0
1633 -1630 1665 0
-1633 1630 1665 0
-1634 -1631 -1666 0
1634 1631 -1666 0
1634 -1631 1666 0
-1634 1631 1666 0
-1635 -1632 -1667 0
1635 1632 -1667 0
1635 -1632 1667 0
-1635 1632 1667 0
-1636 -1601 -1668 0
1636 1601 -1668 0
1636 -1601 1668 0
-1636 1601 1668 0
-1637 -1602 -1669 0
1637 1602 -1669 0
1637 -1602 1669 0
-1637 1602 1669 0
-1638 -1603 -1670 0
1638 1603 -1670 0
1638 -1603 1670 0
-1638 1603 1670 0
-1639 -1604 -1671 0
1639 1604 -1671 0
1639 -1604 1671 0
-1639 1604 1671 0
-1640 -1605 -1672 0
1640 1605 -1672 0
1640 -1605 1672 0
-1640 1605 1672 0
-1641 -1606 -1673 0
1641 1606 -1673 0
1641 -1606 1673 0
-1641 1606 1673 0
-1642 -1607 -1674 0
1642 1607 -1674 0
1642 -1607 1674 0
-1642 1607 1674 0
-1643 -1608 -1675 0
1643 1608 -1675 0
1643 -1608 1675 0
-1643 1608 1675 0
-1644 -1609 -1676 0
1644 1609 -1676 0
1644 -1609 1676 0
-1644 1609 1676 0
-1645 -1610 -1677 0
1645 1610 -1677 0
1645 -1610 1677 0
-1645 1610 1677 0
-1646 -1611 -1678 0
1646 1611 -1678 0
1646 -1611 1678 0
-1646 1611 1678 0
-1647 -1612 -1679 0
1647 1612 -1679 0
1647 -1612 1679 0
-1647 1612 1679 0
-1648 -1613 -1680 0
1648 1613 -1680 0
1648 -1613 1680 0
-1648 1613 1680 0
-1649 -1614 -1681 0
1649 1614 -1681 0
1649 -1614 1681 0
-1649 1614 1681 0
-1650 -1615 -1682 0
1650 1615 -1682 0
1650 -1615 1682 0
-1650 1615 1682 0
-1651 -1616 -1683 0
1651 1616 -1683 0
1651 -1616 1683 0
-1651 1616 1683 0
-1652 -1617 -1684 0
1652 1617 -1684 0
1652 -1617 1684 0
-1652 1617 1684 0
-1653 -1618 -1685 0
1653 1618 -1685 0
1653 -1618 1685 0
-1653 1618 1685 0
-1654 -1619 -1686 0
1654 1619 -1686 0
1654 -1619 1686 0
-1654 1619 1686 0
-1655 -1620 -1687 0
1655 1620 -1687 0
1655 -1620 1687 0
-1655 1620 1687 0
-1656 -1621 -1688 0
1656 1621 -1688 0
1656 -1621 1688 0
-1656 1621 1688 0
-1657 -1622 -1689 0
1657 1622 -1689 0
1657 -1622 1689 0
-1657 1622 1689 0
-1658 -1623 -1690 0
1658 1623 -1690 0
1658 -1623 1690 0
-1658 1623 1690 0
-1659 -1624 -1691 0
1659 1624 -1691 0
1659 -1624 1691 0
-1659 1624 1691 0
-1660 -1625 -1692 0
1660 1625 -1692 0
1660 -1625 1692 0
-1660 1625 1692 0
-1661 -1626 -1693 0
1661 1626 -1693 0
1661 -1626 1693 0
-1661 1626 1693 0
-1662 -1627 -1694 0
1662 1627 -1694 0
1662 -1627 1694 0
-1662 1627 1694 0
-1663 -1628 -1695 0
1663 1628 -1695 0
1663 -1628 1695 0
-1663 1628 1695 0
-1664 -1629 -1696 0
1664 1629 -1696 0
1664 -1629 1696 0
-1664 1629 1696 0
-1665 -93 -1697 0
1665 93 -1697 0
1665 -93 1697 0
-1665 93 1697 0
-1666 -94 -1698 0
1666 94 -1698 0
1666 -94 1698 0
-1666 94 1698 0
-1667 -95 -1699 0
1667 95 -1699 0
1667 -95 1699 0
-1667 95 1699 0
-1668 -96 -1700 0
1668 96 -1700 0
1668 -96 1700 0
-1668 96 1700 0
-1669 -65 -1701 0
1669 65 -1701 0
1669 -65 1701 0
-1669 65 1701 0
-1670 -66 -1702 0
1670 66 -1702 0
1670 -66 1702 0
-1670 66 1702 0
-1671 -67 -1703 0
1671 67 -1703 0
1671 -67 1703 0
-1671 67 1703 0
-1672 -68 -1704 0
1672 68 -1704 0
1672 -68 1704 0
-1672 68 1704 0
-1673 -69 -1705 0
1673 69 -1705 0
1673 -69 1705 0
-1673 69 1705 0
-1674 -70 -1706 0
1674 70 -1706 0
1674 -70 1706 0
-1674 70 1706 0
-1675 -71 -1707 0
1675 71 -1707 0
1675 -71 1707 0
-1675 71 1707 0
-1676 -72 -1708 0
1676 72 -1708 0
1676 -72 1708 0
-1676 72 1708 0
-1677 -73 -1709 0
1677 73 -1709 0
1677 -73 1709 0
-1677 73 1709 0
-1678 -74 -1710 0
1678 74 -1710 0
1678 -74 1710 0
-1678 74 1710 0
-1679 -75 -1711 0
1679 75 -1711 0
1679 -75 1711 0
-1679 75 1711 0
-1680 -76 -1712 0
1680 76 -1712 0
1680 -76 1712 0
-1680 76 1712 0
-1681 -77 -1713 0
1681 77 -1713 0
1681 -77 1713 0
-1681 77 1713 0
-1682 -78 -1714 0
1682 78 -1714 0
1682 -78 1714 0
-1682 78 1714 0
-1683 -79 -1715 0
1683 79 -1715 0
1683 -79 1715 0
-1683 79 1715 0
-1684 -80 -1716 0
1684 80 -1716 0
1684 -80 1716 0
-1684 80 1716 0
-1685 -81 -1717 0
1685 81 -1717 0
1685 -81 1717 0
-1685 81 1717 0
-1686 -82 -1718 0
1686 82 -1718 0
1686 -82 1718 0
-1686 82 1718 0
-1687 -83 -1719 0
1687 83 -1719 0
1687 -83 1719 0
-1687 83 1719 0
-1688 -84 -1720 0
1688 84 -1720 0
1688 -84 1720 0
-1688 84 1720 0
-1689 -85 -1721 0
1689 85 -1721 0
1689 -85 1721 0
-1689 85 1721 0
-1690 -86 -1722 0
1690 86 -1722 0
1690 -86 1722 0
-1690 86 1722 0
-1691 -87 -1723 0
1691 87 -1723 0
1691 -87 1723 0
-1691 87 1723 0
-1692 -88 -1724 0
1692 88 -1724 0
1692 -88 1724 0
-1692 88 1724 0
-1693 -89 -1725 0
1693 89 -1725 0
1693 -89 1725 0
-1693 89 1725 0
-1694 -90 -1726 0
1694 90 -1726 0
1694 -90 1726 0
-1694 90 1726 0
-1695 -91 -1727 0
1695 91 -1727 0
1695 -91 1727 0
-1695 91 1727 0
-1696 -92 -1728 0
1696 92 -1728 0
1696 -92 1728 0
-1696 92 1728 0
-1473 -1697 -1729 0
1473 1697 -1729 0
1473 -1697 1729 0
-1473 1697 1729 0
-1474 -1698 -1730 0
1474 1698 -1730 0
1474 -1698 1730 0
-1474 1698 1730 0
-1475 -1699 -1731 0
1475 1699 -1731 0
1475 -1699 1731 0
-1475 1699 1731 0
-1476 -1700 -1732 0
1476 1700 -1732 0
1476 -1700 1732 0
-1476 1700 1732 0
-1477 -1701 -1733 0
1477 1701 -1733 0
1477 -1701 1733 0
-1477 1701 1733 0
-1478 -1702 -1734 0
1478 1702 -1734 0
1478 -1702 1734 0
-1478 1702 1734 0
-1479 -1703 -1735 0
1479 1703 -1735 0
1479 -1703 1735 0
-1479 1703 1735 0
-1480 -1704 -1736 0
1480 1704 -1736 0
1480 -1704 1736 0
-1480 1704 1736 0
-1481 -1705 -1737 0
1481 1705 -1737 0
1481 -1705 1737 0
-1481 1705 1737 0
-1482 -1706 -1738 0
1482 1706 -1738 0
1482 -1706 1738 0
-1482 1706 1738 0
-1483 -1707 -1739 0
1483 1707 -1739 0
1483 -1707 1739 0
-1483 1707 1739 0
-1484 -1708 -1740 0
1484 1708 -1740 0
1484 -1708 1740 0
-1484 1708 1740 0
-1485 -1709 -1741 0
1485 1709 -1741 0
1485 -1709 1741 0
-1485 1709 1741 0
-1486 -1710 -1742 0
1486 1710 -1742 0
1486 -1710 1742 0
-1486 1710 1742 0
-1487 -1711 -1743 0
1487 1711 -1743 0
1487 -1711 1743 0
-1487 1711 1743 0
-1488 -1712 -1744 0
1488 1712 -1744 0
1488 -1712 1744 0
-1488 1712 1744 0
-1489 -1713 -1745 0
1489 1713 -1745 0
1489 -1713 1745 0
-1489 1713 1745 0
-1490 -1714 -1746 0
1490 1714 -1746 0
1490 -1714 1746 0
-1490 1714 1746 0
-1491 -1715 -1747 0
1491 1715 -1747 0
1491 -1715 1747 0
-1491 1715 1747 0
-1492 -1716 -1748 0
1492 1716 -1748 0
1492 -1716 1748 0
-1492 1716 1748 0
-1493 -1717 -1749 0
1493 1717 -1749 0
1493 -1717 1749 0
-1493 1717 1749 0
-1494 -1718 -1750 0
1494 1718 -1750 0
1494 -1718 1750 0
-1494 1718 1750 0
-1495 -1719 -1751 0
1495 1719 -1751 0
1495 -1719 1751 0
-1495 1719 1751 0
-1496 -1720 -1752 0
1496 1720 -1752 0
1496 -1720 1752 0
-1496 1720 1752 0
-1497 -1721 -1753 0
1497 1721 -1753 0
1497 -1721 1753 0
-1497 1721 1753 0
-1498 -1722 -1754 0
1498 1722 -1754 0
1498 -1722 1754 0
-1498 1722 1754 0
-1499 -1723 -1755 0
1499 1723 -1755 0
1499 -1723 1755 0
-1499 1723 1755 0
-1500 -1724 -1756 0
1500 1724 -1756 0
1500 -1724 1756 0
-1500 1724 1756 0
-1501 -1725 -1757 0
1501 1725 -1757 0
1501 -1725 1757 0
-1501 1725 1757 0
-1502 -1726 -1758 0
1502 1726 -1758 0
1502 -1726 1758 0
-1502 1726 1758 0
-1503 -1727 -1759 0
1503 1727 -1759 0
1503 -1727 1759 0
-1503 1727 1759 0
-1504 -1728 -1760 0
1504 1728 -1760 0
1504 -1728 1760 0
-1504 1728 1760 0
-1761 1729 0
-1761 90 0
-1729 -90 1761 0
-1762 1730 0
-1762 91 0
-1730 -91 1762 0
-1763 1731 0
-1763 92 0
-1731 -92 1763 0
-1764 1732 0
-1764 93 0
-1732 -93 1764 0
-1765 1733 0
-1765 94 0
-1733 -94 1765 0
-1766 1734 0
-1766 95 0
-1734 -95 1766 0
-1767 1735 0
-1767 96 0
-1735 -96 1767 0
-1768 1736 0
-1768 65 0
-1736 -65 1768 0
-1769 1737 0
-1769 66 0
-1737 -66 1769 0
-1770 1738 0
-1770 67 0
-1738 -67 1770 0
-1771 1739 0
-1771 68 0
-1739 -68 1771 0
-1772 1740 0
-1772 69 0
-1740 -69 1772 0
-1773 1741 0
-1773 70 0
-1741 -70 1773 0
-1774 1742 0
-1774 71 0
-1742 -71 1774 0
-1775 1743 0
-1775 72 0
-1743 -72 1775 0
-1776 1744 0
-1776 73 0
-1744 -73 1776 0
-1777 1745 0
-1777 74 0
-1745 -74 1777 0
-1778 1746 0
-1778 75 0
-1746 -75 1778 0
-1779 1747 0
-1779 76 0
-1747 -76 1779 0
-1780 1748 0
-1780 77 0
-1748 -77 1780 0
-1781 1749 0
-1781 78 0
-1749 -78 1781 0
-1782 1750 0
-1782 79 0
-1750 -79 1782 0
-1783 1751 0
-1783 80 0
-1751 -80 1783 0
-1784 1752 0
-1784 81 0
-1752 -81 1784 0
-1785 1753 0
-1785 82 0
-1753 -82 1785 0
-1786 1754 0
-1786 83 0
-1754 -83 1786 0
-1787 1755 0
-1787 84 0
-1755 -84 1787 0
-1788 1756 0
-1788 85 0
-1756 -85 1788 0
-1789 1757 0
-1789 86 0
-1757 -86 1789 0
-1790 1758 0
-1790 87 0
-1758 -87 1790 0
-1791 1759 0
-1791 88 0
-1759 -88 1791 0
-1792 1760 0
-1792 89 0
-1760 -89 1792 0
-1761 -1758 -1793 0
1761 1758 -1793 0
1761 -1758 1793 0
-1761 1758 1793 0
-1762 -1759 -1794 0
1762 1759 -1794 0
1762 -1759 1794 0
-1762 1759 1794 0
-1763 -1760 -1795 0
1763 1760 -1795 0
1763 -1760 1795 0
-1763 1760 1795 0
-1764 -1729 -1796 0
1764 1729 -1796 0
1764 -1729 1796 0
-1764 1729 1796 0
-1765 -1730 -1797 0
1765 1730 -1797 0
1765 -1730 1797 0
-1765 1730 1797 0
-1766 -1731 -1798 0
1766 1731 -1798 0
1766 -1731 1798 0
-1766 1731 1798 0
-1767 -1732 -1799 0
1767 1732 -1799 0
1767 -1732 1799 0
-1767 1732 1799 0
-1768 -1733 -1800 0
1768 1733 -1800 0
1768 -1733 1800 0
-1768 1733 1800 0
-1769 -1734 -1801 0
1769 1734 -1801 0
1769 -1734 1801 0
-1769 1734 1801 0
-1770 -1735 -1802 0
1770 1735 -1802 0
1770 -1735 1802 0
-1770 1735 1802 0
-1771 -1736 -1803 0
1771 1736 -1803 0
1771 -1736 1803 0
-1771 1736 1803 0
-1772 -1737 -1804 0
1772 1737 -1804 0
1772 -1737 1804 0
-1772 1737 1804 0
-1773 -1738 -1805 0
1773 1738 -1805 0
1773 -1738 1805 0
-1773 1738 1805 0
-1774 -1739 -1806 0
1774 1739 -1806 0
1774 -1739 1806 0
-1774 1739 1806 0
-1775 -1740 -1807 0
1775 1740 -1807 0
1775 -1740 1807 0
-1775 1740 1807 0
-1776 -1741 -1808 0
1776 1741 -1808 0
1776 -1741 1808 0
-1776 1741 1808 0
-1777 -1742 -1809 0
1777 1742 -1809 0
1777 -1742 1809 0
-1777 1742 1809 0
-1778 -1743 -1810 0
1778 1743 -1810 0
1778 -1743 1810 0
-1778 1743 1810 0
-1779 -1744 -1811 0
1779 1744 -1811 0
1779 -1744 1811 0
-1779 1744 1811 0
-1780 -1745 -1812 0
1780 1745 -1812 0
1780 -1745 1812 0
-1780 1745 1812 0
-1781 -1746 -1813 0
1781 1746 -1813 0
1781 -1746 1813 0
-1781 1746 1813 0
-1782 -1747 -1814 0
1782 1747 -1814 0
1782 -1747 1814 0
-1782 1747 1814 0
-1783 -1748 -1815 0
1783 1748 -1815 0
1783 -1748 1815 0
-1783 1748 1815 0
-1784 -1749 -1816 0
1784 1749 -1816 0
1784 -1749 1816 0
-1784 1749 1816 0
-1785 -1750 -1817 0
1785 1750 -1817 0
1785 -1750 1817 0
-1785 1750 1817 0
-1786 -1751 -1818 0
1786 1751 -1818 0
1786 -1751 1818 0
-1786 1751 1818 0
-1787 -1752 -1819 0
1787 1752 -1819 0
1787 -1752 1819 0
-1787 1752 1819 0
-1788 -1753 -1820 0
1788 1753 -1820 0
1788 -1753 1820 0
-1788 1753 1820 0
-1789 -1754 -1821 0
1789 1754 -1821 0
1789 -1754 1821 0
-1789 1754 1821 0
-1790 -1755 -1822 0
1790 1755 -1822 0
1790 -1755 1822 0
-1790 1755 1822 0
-1791 -1756 -1823 0
1791 1756 -1823 0
1791 -1756 1823 0
-1791 1756 1823 0
-1792 -1757 -1824 0
1792 1757 -1824 0
1792 -1757 1824 0
-1792 1757 1824 0
-1793 -90 -1825 0
1793 90 -1825 0
1793 -90 1825 0
-1793 90 1825 0
-1794 -91 -1826 0
1794 91 -1826 0
1794 -91 1826 0
-1794 91 1826 0
-1795 -92 -1827 0
1795 92 -1827 0
1795 -92 1827 0
-1795 92 1827 0
-1796 -93 -1828 0
1796 93 -1828 0
1796 -93 1828 0
-1796 93 1828 0
-1797 -94 -1829 0
1797 94 -1829 0
1797 -94 1829 0
-1797 94 1829 0
-1798 -95 -1830 0
1798 95 -1830 0
1798 -95 1830 0
-1798 95 1830 0
-1799 -96 -1831 0
1799 96 -1831 0
1799 -96 1831 0
-1799 96 1831 0
-1800 -65 -1832 0
1800 65 -1832 0
1800 -65 1832 0
-1800 65 1832 0
-1801 -66 -1833 0
1801 66 -1833 0
1801 -66 1833 0
-1801 66 1833 0
-1802 -67 -1834 0
1802 67 -1834 0
1802 -67 1834 0
-1802 67 1834 0
-1803 -68 -1835 0
1803 68 -1835 0
1803 -68 1835 0
-1803 68 1835 0
-1804 -69 -1836 0
1804 69 -1836 0
1804 -69 1836 0
-1804 69 1836 0
-1805 -70 -1837 0
1805 70 -1837 0
1805 -70 1837 0
-1805 70 1837 0
-1806 -71 -1838 0
1806 71 -1838 0
1806 -71 1838 0
-1806 71 1838 0
-1807 -72 -1839 0
1807 72 -1839 0
1807 -72 1839 0
-1807 72 1839 0
-1808 -73 -1840 0
1808 73 -1840 0
1808 -73 1840 0
-1808 73 1840 0
-1809 -74 -1841 0
1809 74 -1841 0
1809 -74 1841 0
-1809 74 1841 0
-1810 -75 -1842 0
1810 75 -1842 0
1810 -75 1842 0
-1810 75 1842 0
-1811 -76 -1843 0
1811 76 -1843 0
1811 -76 1843 0
-1811 76 1843 0
-1812 -77 -1844 0
1812 77 -1844 0
1812 -77 1844 0
-1812 77 1844 0
-1813 -78 -1845 0
1813 78 -1845 0
1813 -78 1845 0
-1813 78 1845 0
-1814 -79 -1846 0
1814 79 -1846 0
1814 -79 1846 0
-1814 79 1846 0
-1815 -80 -1847 0
1815 80 -1847 0
1815 -80 1847 0
-1815 80 1847 0
-1816 -81 -1848 0
1816 81 -1848 0
1816 -81 1848 0
-1816 81 1848 0
-1817 -82 -1849 0
1817 82 -1849 0
1817 -82 1849 0
-1817 82 1849 0
-1818 -83 -1850 0
1818 83 -1850 0
1818 -83 1850 0
-1818 83 1850 0
-1819 -84 -1851 0
1819 84 -1851 0
1819 -84 1851 0
-1819 84 1851 0
-1820 -85 -1852 0
1820 85 -1852 0
1820 -85 1852 0
-1820 85 1852 0
-1821 -86 -1853 0
1821 86 -1853 0
1821 -86 1853 0
-1821 86 1853 0
-1822 -87 -1854 0
1822 87 -1854 0
1822 -87 1854 0
-1822 87 1854 0
-1823 -88 -1855 0
1823 88 -1855 0
1823 -88 1855 0
-1823 88 1855 0
-1824 -89 -1856 0
1824 89 -1856 0
1824 -89 1856 0
-1824 89 1856 0
-1601 -1825 -1857 0
1601 1825 -1857 0
1601 -1825 1857 0
-1601 1825 1857 0
-1602 -1826 -1858 0
1602 1826 -1858 0
1602 -1826 1858 0
-1602 1826 1858 0
-1603 -1827 -1859 0
1603 1827 -1859 0
1603 -1827 1859 0
-1603 1827 1859 0
-1604 -1828 -1860 0
1604 1828 -1860 0
1604 -1828 1860 0
-1604 1828 1860 0
-1605 -1829 -1861 0
1605 1829 -1861 0
1605 -1829 1861 0
-1605 1829 1861 0
-1606 -1830 -1862 0
1606 1830 -1862 0
1606 -1830 1862 0
-1606 1830 1862 0
-1607 -1831 -1863 0
1607 1831 -1863 0
1607 -1831 1863 0
-1607 1831 1863 0
-1608 -1832 -1864 0
1608 1832 -1864 0
1608 -1832 1864 0
-1608 1832 1864 0
-1609 -1833 -1865 0
1609 1833 -1865 0
1609 -1833 1865 0
-1609 1833 1865 0
-1610 -1834 -1866 0
1610 1834 -1866 0
1610 -1834 1866 0
-1610 1834 1866 0
-1611 -1835 -1867 0
1611 1835 -1867 0
1611 -1835 1867 0
-1611 1835 1867 0
-1612 -1836 -1868 0
1612 1836 -1868 0
1612 -1836 1868 0
-1612 1836 1868 0
-1613 -1837 -1869 0
1613 1837 -1869 0
1613 -1837 1869 0
-1613 1837 1869 0
-1614 -1838 -1870 0
1614 1838 -1870 0
1614 -1838 1870 0
-1614 1838 1870 0
-1615 -1839 -1871 0
1615 1839 -1871 0
1615 -1839 1871 0
-1615 1839 1871 0
-1616 -1840 -1872 0
1616 1840 -1872 0
1616 -1840 1872 0
-1616 1840 1872 0
-1617 -1841 -1873 0
1617 1841 -1873 0
1617 -1841 1873 0
-1617 1841 1873 0
-1618 -1842 -1874 0
1618 1842 -1874 0
1618 -1842 1874 0
-1618 1842 1874 0
-1619 -1843 -1875 0
1619 1843 -1875 0
1619 -1843 1875 0
-1619 1843 1875 0
-1620 -1844 -1876 0
1620 1844 -1876 0
1620 -1844 1876 0
-1620 1844 1876 0
-1621 -1845 -1877 0
1621 1845 -1877 0
1621 -1845 1877 0
-1621 1845 1877 0
-1622 -1846 -1878 0
1622 1846 -1878 0
1622 -1846 1878 0
-1622 1846 1878 0
-1623 -1847 -1879 0
1623 1847 -1879 0
1623 -1847 1879 0
-1623 1847 1879 0
-1624 -1848 -1880 0
1624 1848 -1880 0
1624 -1848 1880 0
-1624 1848 1880 0
-1625 -1849 -1881 0
1625 1849 -1881 0
1625 -1849 1881 0
-1625 1849 1881 0
-1626 -1850 -1882 0
1626 1850 -1882 0
1626 -1850 1882 0
-1626 1850 1882 0
-1627 -1851 -1883 0
1627 1851 -1883 0
1627 -1851 1883 0
-1627 1851 1883 0
-1628 -1852 -1884 0
1628 1852 -1884 0
1628 -1852 1884 0
-1628 1852 1884 0
-1629 -1853 -1885 0
1629 1853 -1885 0
1629 -1853 1885 0
-1629 1853 1885 0
-1630 -1854 -1886 0
1630 1854 -1886 0
1630 -1854 1886 0
-1630 1854 1886 0
-1631 -1855 -1887 0
1631 1855 -1887 0
1631 -1855 1887 0
-1631 1855 1887 0
-1632 -1856 -1888 0
1632 1856 -1888 0
1632 -1856 1888 0
-1632 1856 1888 0
-1889 1857 0
-1889 87 0
-1857 -87 1889 0
-1890 1858 0
-1890 88 0
-1858 -88 1890 0
-1891 1859 0
-1891 89 0
-1859 -89 1891 0
-1892 1860 0
-1892 90 0
-1860 -90 1892 0
-1893 1861 0
-1893 91 0
-1861 -91 1893 0
-1894 1862 0
-1894 92 0
-1862 -92 1894 0
-1895 1863 0
-1895 93 0
-1863 -93 1895 0
-1896 1864 0
-1896 94 0
-1864 -94 1896 0
-1897 1865 0
-1897 95 0
-1865 -95 1897 0
-1898 1866 0
-1898 96 0
-1866 -96 1898 0
-1899 1867 0
-1899 65 0
-1867 -65 1899 0
-1900 1868 0
-1900 66 0
-1868 -66 1900 0
-1901 1869 0
-1901 67 0
-1869 -67 1901 0
-1902 1870 0
-1902 68 0
-1870 -68 1902 0
-1903 1871 0
-1903 69 0
-1871 -69 1903 0
-1904 1872 0
-1904 70 0
-1872 -70 1904 0
-1905 1873 0
-1905 71 0
-1873 -71 1905 0
-1906 1874 0
-1906 72 0
-1874 -72 1906 0
-1907 1875 0
-1907 73 0
-1875 -73 1907 0
-1908 1876 0
-1908 74 0
-1876 -74 1908 0
-1909 1877 0
-1909 75 0
-1877 -75 1909 0
-1910 1878 0
-1910 76 0
-1878 -76 1910 0
-1911 1879 0
-1911 77 0
-1879 -77 1911 0
-1912 1880 0
-1912 78 0
-1880 -78 1912 0
-1913 1881 0
-1913 79 0
-1881 -79 1913 0
-1914 1882 0
-1914 80 0
-1882 -80 1914 0
-1915 1883 0
-1915 81 0
-1883 -81 1915 0
-1916 1884 0
-1916 82 0
-1884 -82 1916 0
-1917 1885 0
-1917 83 0
-1885 -83 1917 0
-1918 1886 0
-1918 84 0
-1886 -84 1918 0
-1919 1887 0
-1919 85 0
-1887 -85 1919 0
-1920 1888 0
-1920 86 0
-1888 -86 1920 0
-1889 -1886 -1921 0
1889 1886 -1921 0
1889 -1886 1921 0
-1889 1886 1921 0
-1890 -1887 -1922 0
1890 1887 -1922 0
1890 -1887 1922 0
-1890 1887 1922 0
-1891 -1888 -1923 0
1891 1888 -1923 0
1891 -1888 1923 0
-1891 1888 1923 0
-1892 -1857 -1924 0
1892 1857 -1924 0
1892 -1857 1924 0
-1892 1857 1924 0
-1893 -1858 -1925 0
1893 1858 -1925 0
1893 -1858 1925 0
-1893 1858 1925 0
-1894 -1859 -1926 0
1894 1859 -1926 0
1894 -1859 1926 0
-1894 1859 1926 0
-1895 -1860 -1927 0
1895 1860 -1927 0
1895 -1860 1927 0
-1895 1860 1927 0
-1896 -1861 -1928 0
1896 1861 -1928 0
1896 -1861 1928 0
-1896 1861 1928 0
-1897 -1862 -1929 0
1897 1862 -1929 0
1897 -1862 1929 0
-1897 1862 1929 0
-1898 -1863 -1930 0
1898 1863 -1930 0
1898 -1863 1930 0
-1898 1863 1930 0
-1899 -1864 -1931 0
1899 1864 -1931 0
1899 -1864 1931 0
-1899 1864 1931 0
-1900 -1865 -1932 0
1900 1865 -1932 0
1900 -1865 1932 0
-1900 1865 1932 0
-1901 -1866 -1933 0
1901 1866 -1933 0
1901 -1866 1933 0
-1901 1866 1933 0
-1902 -1867 -1934 0
1902 1867 -1934 0
1902 -1867 1934 0
-1902 1867 1934 0
-1903 -1868 -1935 0
1903 1868 -1935 0
1903 -1868 1935 0
-1903 1868 1935 0
-1904 -1869 -1936 0
1904 1869 -1936 0
1904 -1869 1936 0
-1904 1869 1936 0
-1905 -1870 -1937 0
1905 1870 -1937 0
1905 -1870 1937 0
-1905 1870 1937 0
-1906 -1871 -1938 0
1906 1871 -1938 0
1906 -1871 1938 0
-1906 1871 1938 0
-1907 -1872 -1939 0
1907 1872 -1939 0
1907 -1872 1939 0
-1907 1872 1939 0
-1908 -1873 -1940 0
1908 1873 -1940 0
1908 -1873 1940 0
-1908 1873 1940 0
-1909 -1874 -1941 0
1909 1874 -1941 0
1909 -1874 1941 0
-1909 1874 1941 0
-1910 -1875 -1942 0
1910 1875 -1942 0
1910 -1875 1942 0
-1910 1875 1942 0
-1911 -1876 -1943 0
1911 1876 -1943 0
1911 -1876 1943 0
-1911 1876 1943 0
-1912 -1877 -1944 0
1912 1877 -1944 0
1912 -1877 1944 0
-1912 1877 1944 0
-1913 -1878 -1945 0
1913 1878 -1945 0
1913 -1878 1945 0
-1913 1878 1945 0
-1914 -1879 -1946 0
1914 1879 -1946 0
1914 -1879 1946 0
-1914 1879 1946 0
-1915 -1880 -1947 0
1915 1880 -1947 0
1915 -1880 1947 0
-1915 1880 1947 0
-1916 -1881 -1948 0
1916 1881 -1948 0
1916 -1881 1948 0
-1916 1881 1948 0
-1917 -1882 -1949 0
1917 1882 -1949 0
1917 -1882 1949 0
-1917 1882 1949 0
-1918 -1883 -1950 0
1918 1883 -1950 0
1918 -1883 1950 0
-1918 1883 1950 0
-1919 -1884 -1951 0
1919 1884 -1951 0
1919 -1884 1951 0
-1919 1884 1951 0
-1920 -1885 -1952 0
1920 1885 -1952 0
1920 -1885 1952 0
-1920 1885 1952 0
-1921 -87 -1953 0
1921 87 -1953 0
1921 -87 1953 0
-1921 87 1953 0
-1922 -88 -1954 0
1922 88 -1954 0
1922 -88 1954 0
-1922 88 1954 0
-1923 -89 -1955 0
1923 89 -1955 0
1923 -89 1955 0
-1923 89 1955 0
-1924 -90 -1956 0
1924 90 -1956 0
1924 -90 1956 0
-1924 90 1956 0
-1925 -91 -1957 0
1925 91 -1957 0
1925 -91 1957 0
-1925 91 1957 0
-1926 -92 -1958 0
1926 92 -1958 0
1926 -92 1958 0
-1926 92 1958 0
-1927 -93 -1959 0
1927 93 -1959 0
1927 -93 1959 0
-1927 93 1959 0
-1928 -94 -1960 0
1928 94 -1960 0
1928 -94 1960 0
-1928 94 1960 0
-1929 -95 -1961 0
1929 95 -1961 0
1929 -95 1961 0
-1929 95 1961 0
-1930 -96 -1962 0
1930 96 -1962 0
1930 -96 1962 0
-1930 96 1962 0
-1931 -65 -1963 0
1931 65 -1963 0
1931 -65 1963 0
-1931 65 1963 0
-1932 -66 -1964 0
1932 66 -1964 0
1932 -66 1964 0
-1932 66 1964 0
-1933 -67 -1965 0
1933 67 -1965 0
1933 -67 1965 0
-1933 67 1965 0
-1934 -68 -1966 0
1934 68 -1966 0
1934 -68 1966 0
-1934 68 1966 0
-1935 -69 -1967 0
1935 69 -1967 0
1935 -69 1967 0
-1935 69 1967 0
-1936 -70 -1968 0
1936 70 -1968 0
1936 -70 1968 0
-1936 70 1968 0
-1937 -71 -1969 0
1937 71 -1969 0
1937 -71 1969 0
-1937 71 1969 0
-1938 -72 -1970 0
1938 72 -1970 0
1938 -72 1970 0
-1938 72 1970 0
-1939 -73 -1971 0
1939 73 -1971 0
1939 -73 1971 0
-1939 73 1971 0
-1940 -74 -1972 0
1940 74 -1972 0
1940 -74 1972 0
-1940 74 1972 0
-1941 -75 -1973 0
1941 75 -1973 0
1941 -75 1973 0
-1941 75 1973 0
-1942 -76 -1974 0
1942 76 -1974 0
1942 -76 1974 0
-1942 76 1974 0
-1943 -77 -1975 0
1943 77 -1975 0
1943 -77 1975 0
-1943 77 1975 0
-1944 -78 -1976 0
1944 78 -1976 0
1944 -78 1976 0
-1944 78 1976 0
-1945 -79 -1977 0
1945 79 -1977 0
1945 -79 1977 0
-1945 79 1977 0
-1946 -80 -1978 0
1946 80 -1978 0
1946 -80 1978 0
-1946 80 1978 0
-1947 -81 -1979 0
1947 81 -1979 0
1947 -81 1979 0
-1947 81 1979 0
-1948 -82 -1980 0
1948 82 -1980 0
1948 -82 1980 0
-1948 82 1980 0
-1949 -83 -1981 0
1949 83 -1981 0
1949 -83 1981 0
-1949 83 1981 0
-1950 -84 -1982 0
1950 84 -1982 0
1950 -84 1982 0
-1950 84 1982 0
-1951 -85 -1983 0
1951 85 -1983 0
1951 -85 1983 0
-1951 85 1983 0
-1952 -86 -1984 0
1952 86 -1984 0
1952 -86 1984 0
-1952 86 1984 0
-1729 -1953 -1985 0
1729 1953 -1985 0
1729 -1953 1985 0
-1729 1953 1985 0
-1730 -1954 -1986 0
1730 1954 -1986 0
1730 -1954 1986 0
-1730 1954 1986 0
-1731 -1955 -1987 0
1731 1955 -1987 0
1731 -1955 1987 0
-1731 1955 1987 0
-1732 -1956 -1988 0
1732 1956 -1988 0
1732 -1956 1988 0
-1732 1956 1988 0
-1733 -1957 -1989 0
1733 1957 -1989 0
1733 -1957 1989 0
-1733 1957 1989 0
-1734 -1958 -1990 0
1734 1958 -1990 0
1734 -1958 1990 0
-1734 1958 1990 0
-1735 -1959 -1991 0
1735 1959 -1991 0
1735 -1959 1991 0
-1735 1959 1991 0
-1736 -1960 -1992 0
1736 1960 -1992 0
1736 -1960 1992 0
-1736 1960 1992 0
-1737 -1961 -1993 0
1737 1961 -1993 0
1737 -1961 1993 0
-1737 1961 1993 0
-1738 -1962 -1994 0
1738 1962 -1994 0
1738 -1962 1994 0
-1738 1962 1994 0
-1739 -1963 -1995 0
1739 1963 -1995 0
1739 -1963 1995 0
-1739 1963 1995 0
-1740 -1964 -1996 0
1740 1964 -1996 0
1740 -1964 1996 0
-1740 1964 1996 0
-1741 -1965 -1997 0
1741 1965 -1997 0
1741 -1965 1997 0
-1741 1965 1997 0
-1742 -1966 -1998 0
1742 1966 -1998 0
1742 -1966 1998 0
-1742 1966 1998 0
-1743 -1967 -1999 0
1743 1967 -1999 0
1743 -1967 1999 0
-1743 1967 1999 0
-1744 -1968 -2000 0
1744 1968 -2000 0
1744 -1968 2000 0
-1744 1968 2000 0
-1745 -1969 -2001 0
1745 1969 -2001 0
1745 -1969 2001 0
-1745 1969 2001 0
-1746 -1970 -2002 0
1746 1970 -2002 0
1746 -1970 2002 0
-1746 1970 2002 0
-1747 -1971 -2003 0
1747 1971 -2003 0
1747 -1971 2003 0
-1747 1971 2003 0
-1748 -1972 -2004 0
1748 1972 -2004 0
1748 -1972 2004 0
-1748 1972 2004 0
-1749 -1973 -2005 0
1749 1973 -2005 0
1749 -1973 2005 0
-1749 1973 2005 0
-1750 -1974 -2006 0
1750 1974 -2006 0
1750 -1974 2006 0
-1750 1974 2006 0
-1751 -1975 -2007 0
1751 1975 -2007 0
1751 -1975 2007 0
-1751 1975 2007 0
-1752 -1976 -2008 0
1752 1976 -2008 0
1752 -1976 2008 0
-1752 1976 2008 0
-1753 -1977 -2009 0
1753 1977 -2009 0
1753 -1977 2009 0
-1753 1977 2009 0
-1754 -1978 -2010 0
1754 1978 -2010 0
1754 -1978 2010 0
-1754 1978 2010 0
-1755 -1979 -2011 0
1755 1979 -2011 0
1755 -1979 2011 0
-1755 1979 2011 0
-1756 -1980 -2012 0
1756 1980 -2012 0
1756 -1980 2012 0
-1756 1980 2012 0
-1757 -1981 -2013 0
1757 1981 -2013 0
1757 -1981 2013 0
-1757 1981 2013 0
-1758 -1982 -2014 0
1758 1982 -2014 0
1758 -1982 2014 0
-1758 1982 2014 0
-1759 -1983 -2015 0
1759 1983 -2015 0
1759 -1983 2015 0
-1759 1983 2015 0
-1760 -1984 -2016 0
1760 1984 -2016 0
1760 -1984 2016 0
-1760 1984 2016 0
-1 0
-2 0
-3 0
-4 0
-5 0
-6 0
-7 0
-8 0
-9 0
-10 0
-11 0
-12 0
-13 0
-14 0
-15 0
-16 0
-17 0
-18 0
-19 0
-20 0
-21 0
-22 0
-23 0
-24 0
-25 0
-26 0
-27 0
-28 0
-29 0
-30 0
-31 0
-32 0
-33 0
-34 0
-35 0
-36 0
-37 0
-38 0
-39 0
-40 0
-41 0
-42 0
-43 0
-44 0
-45 0
-46 0
-47 0
-48 0
-49 0
-50 0
-51 0
-52 0
-53 0
-54 0
-55 0
-56 0
-57 0
-58 0
-59 0
-60 0
-61 0
-62 0
-63 0
-64 0
1985 0
1986 0
-1987 0
-1988 0
1989 0
1990 0
1991 0
-1992 0
1993 0
1994 0
1995 0
-1996 0
-1997 0
1998 0
-1999 0
-2000 0
2001 0
-2002 0
2003 0
2004 0
-2005 0
2006 0
2007 0
-2008 0
2009 0
-2010 0
2011 0
2012 0
2013 0
-2014 0
2015 0
2016 0
1857 0
1858 0
1859 0
-1860 0
-1861 0
-1862 0
1863 0
-1864 0
1865 0
1866 0
1867 0
-1868 0
1869 0
-1870 0
1871 0
-1872 0
-1873 0
-1874 0
1875 0
1876 0
-1877 0
-1878 0
1879 0
-1880 0
-1881 0
1882 0
-1883 0
-1884 0
-1885 0
1886 0
-1887 0
1888 0
