c Feistel cipher key recovery — XOR-heavy crypto benchmark
c block_size=64 key_size=52 rounds=15 seed=42
c plaintext=0x0 key=0xa133fad517d ciphertext=0x1ccecb89607f3d62
c vars=2036 clauses=7328
c Expected: SATISFIABLE (key recovery)
p cnf 2036 7328
-117 1 0
-117 65 0
-1 -65 117 0
-118 2 0
-118 66 0
-2 -66 118 0
-119 3 0
-119 67 0
-3 -67 119 0
-120 4 0
-120 68 0
-4 -68 120 0
-121 5 0
-121 69 0
-5 -69 121 0
-122 6 0
-122 70 0
-6 -70 122 0
-123 7 0
-123 71 0
-7 -71 123 0
-124 8 0
-124 72 0
-8 -72 124 0
-125 9 0
-125 73 0
-9 -73 125 0
-126 10 0
-126 74 0
-10 -74 126 0
-127 11 0
-127 75 0
-11 -75 127 0
-128 12 0
-128 76 0
-12 -76 128 0
-129 13 0
-129 77 0
-13 -77 129 0
-130 14 0
-130 78 0
-14 -78 130 0
-131 15 0
-131 79 0
-15 -79 131 0
-132 16 0
-132 80 0
-16 -80 132 0
-133 17 0
-133 81 0
-17 -81 133 0
-134 18 0
-134 82 0
-18 -82 134 0
-135 19 0
-135 83 0
-19 -83 135 0
-136 20 0
-136 84 0
-20 -84 136 0
-137 21 0
-137 85 0
-21 -85 137 0
-138 22 0
-138 86 0
-22 -86 138 0
-139 23 0
-139 87 0
-23 -87 139 0
-140 24 0
-140 88 0
-24 -88 140 0
-141 25 0
-141 89 0
-25 -89 141 0
-142 26 0
-142 90 0
-26 -90 142 0
-143 27 0
-143 91 0
-27 -91 143 0
-144 28 0
-144 92 0
-28 -92 144 0
-145 29 0
-145 93 0
-29 -93 145 0
-146 30 0
-146 94 0
-30 -94 146 0
-147 31 0
-147 95 0
-31 -95 147 0
-148 32 0
-148 96 0
-32 -96 148 0
-117 -30 -149 0
117 30 -149 0
117 -30 149 0
-117 30 149 0
-118 -31 -150 0
118 31 -150 0
118 -31 150 0
-118 31 150 0
-119 -32 -151 0
119 32 -151 0
119 -32 151 0
-119 32 151 0
-120 -1 -152 0
120 1 -152 0
120 -1 152 0
-120 1 152 0
-121 -2 -153 0
121 2 -153 0
121 -2 153 0
-121 2 153 0
-122 -3 -154 0
122 3 -154 0
122 -3 154 0
-122 3 154 0
-123 -4 -155 0
123 4 -155 0
123 -4 155 0
-123 4 155 0
-124 -5 -156 0
124 5 -156 0
124 -5 156 0
-124 5 156 0
-125 -6 -157 0
125 6 -157 0
125 -6 157 0
-125 6 157 0
-126 -7 -158 0
126 7 -158 0
126 -7 158 0
-126 7 158 0
-127 -8 -159 0
127 8 -159 0
127 -8 159 0
-127 8 159 0
-128 -9 -160 0
128 9 -160 0
128 -9 160 0
-128 9 160 0
-129 -10 -161 0
129 10 -161 0
129 -10 161 0
-129 10 161 0
-130 -11 -162 0
130 11 -162 0
130 -11 162 0
-130 11 162 0
-131 -12 -163 0
131 12 -163 0
131 -12 163 0
-131 12 163 0
-132 -13 -164 0
132 13 -164 0
132 -13 164 0
-132 13 164 0
-133 -14 -165 0
133 14 -165 0
133 -14 165 0
-133 14 165 0
-134 -15 -166 0
134 15 -166 0
134 -15 166 0
-134 15 166 0
-135 -16 -167 0
135 16 -167 0
135 -16 167 0
-135 16 167 0
-136 -17 -168 0
136 17 -168 0
136 -17 168 0
-136 17 168 0
-137 -18 -169 0
137 18 -169 0
137 -18 169 0
-137 18 169 0
-138 -19 -170 0
138 19 -170 0
138 -19 170 0
-138 19 170 0
-139 -20 -171 0
139 20 -171 0
139 -20 171 0
-139 20 171 0
-140 -21 -172 0
140 21 -172 0
140 -21 172 0
-140 21 172 0
-141 -22 -173 0
141 22 -173 0
141 -22 173 0
-141 22 173 0
-142 -23 -174 0
142 23 -174 0
142 -23 174 0
-142 23 174 0
-143 -24 -175 0
143 24 -175 0
143 -24 175 0
-143 24 175 0
-144 -25 -176 0
144 25 -176 0
144 -25 176 0
-144 25 176 0
-145 -26 -177 0
145 26 -177 0
145 -26 177 0
-145 26 177 0
-146 -27 -178 0
146 27 -178 0
146 -27 178 0
-146 27 178 0
-147 -28 -179 0
147 28 -179 0
147 -28 179 0
-147 28 179 0
-148 -29 -180 0
148 29 -180 0
148 -29 180 0
-148 29 180 0
-149 -65 -181 0
149 65 -181 0
149 -65 181 0
-149 65 181 0
-150 -66 -182 0
150 66 -182 0
150 -66 182 0
-150 66 182 0
-151 -67 -183 0
151 67 -183 0
151 -67 183 0
-151 67 183 0
-152 -68 -184 0
152 68 -184 0
152 -68 184 0
-152 68 184 0
-153 -69 -185 0
153 69 -185 0
153 -69 185 0
-153 69 185 0
-154 -70 -186 0
154 70 -186 0
154 -70 186 0
-154 70 186 0
-155 -71 -187 0
155 71 -187 0
155 -71 187 0
-155 71 187 0
-156 -72 -188 0
156 72 -188 0
156 -72 188 0
-156 72 188 0
-157 -73 -189 0
157 73 -189 0
157 -73 189 0
-157 73 189 0
-158 -74 -190 0
158 74 -190 0
158 -74 190 0
-158 74 190 0
-159 -75 -191 0
159 75 -191 0
159 -75 191 0
-159 75 191 0
-160 -76 -192 0
160 76 -192 0
160 -76 192 0
-160 76 192 0
-161 -77 -193 0
161 77 -193 0
161 -77 193 0
-161 77 193 0
-162 -78 -194 0
162 78 -194 0
162 -78 194 0
-162 78 194 0
-163 -79 -195 0
163 79 -195 0
163 -79 195 0
-163 79 195 0
-164 -80 -196 0
164 80 -196 0
164 -80 196 0
-164 80 196 0
-165 -81 -197 0
165 81 -197 0
165 -81 197 0
-165 81 197 0
-166 -82 -198 0
166 82 -198 0
166 -82 198 0
-166 82 198 0
-167 -83 -199 0
167 83 -199 0
167 -83 199 0
-167 83 199 0
-168 -84 -200 0
168 84 -200 0
168 -84 200 0
-168 84 200 0
-169 -85 -201 0
169 85 -201 0
169 -85 201 0
-169 85 201 0
-170 -86 -202 0
170 86 -202 0
170 -86 202 0
-170 86 202 0
-171 -87 -203 0
171 87 -203 0
171 -87 203 0
-171 87 203 0
-172 -88 -204 0
172 88 -204 0
172 -88 204 0
-172 88 204 0
-173 -89 -205 0
173 89 -205 0
173 -89 205 0
-173 89 205 0
-174 -90 -206 0
174 90 -206 0
174 -90 206 0
-174 90 206 0
-175 -91 -207 0
175 91 -207 0
175 -91 207 0
-175 91 207 0
-176 -92 -208 0
176 92 -208 0
176 -92 208 0
-176 92 208 0
-177 -93 -209 0
177 93 -209 0
177 -93 209 0
-177 93 209 0
-178 -94 -210 0
178 94 -210 0
178 -94 210 0
-178 94 210 0
-179 -95 -211 0
179 95 -211 0
179 -95 211 0
-179 95 211 0
-180 -96 -212 0
180 96 -212 0
180 -96 212 0
-180 96 212 0
-33 -181 -213 0
33 181 -213 0
33 -181 213 0
-33 181 213 0
-34 -182 -214 0
34 182 -214 0
34 -182 214 0
-34 182 214 0
-35 -183 -215 0
35 183 -215 0
35 -183 215 0
-35 183 215 0
-36 -184 -216 0
36 184 -216 0
36 -184 216 0
-36 184 216 0
-37 -185 -217 0
37 185 -217 0
37 -185 217 0
-37 185 217 0
-38 -186 -218 0
38 186 -218 0
38 -186 218 0
-38 186 218 0
-39 -187 -219 0
39 187 -219 0
39 -187 219 0
-39 187 219 0
-40 -188 -220 0
40 188 -220 0
40 -188 220 0
-40 188 220 0
-41 -189 -221 0
41 189 -221 0
41 -189 221 0
-41 189 221 0
-42 -190 -222 0
42 190 -222 0
42 -190 222 0
-42 190 222 0
-43 -191 -223 0
43 191 -223 0
43 -191 223 0
-43 191 223 0
-44 -192 -224 0
44 192 -224 0
44 -192 224 0
-44 192 224 0
-45 -193 -225 0
45 193 -225 0
45 -193 225 0
-45 193 225 0
-46 -194 -226 0
46 194 -226 0
46 -194 226 0
-46 194 226 0
-47 -195 -227 0
47 195 -227 0
47 -195 227 0
-47 195 227 0
-48 -196 -228 0
48 196 -228 0
48 -196 228 0
-48 196 228 0
-49 -197 -229 0
49 197 -229 0
49 -197 229 0
-49 197 229 0
-50 -198 -230 0
50 198 -230 0
50 -198 230 0
-50 198 230 0
-51 -199 -231 0
51 199 -231 0
51 -199 231 0
-51 199 231 0
-52 -200 -232 0
52 200 -232 0
52 -200 232 0
-52 200 232 0
-53 -201 -233 0
53 201 -233 0
53 -201 233 0
-53 201 233 0
-54 -202 -234 0
54 202 -234 0
54 -202 234 0
-54 202 234 0
-55 -203 -235 0
55 203 -235 0
55 -203 235 0
-55 203 235 0
-56 -204 -236 0
56 204 -236 0
56 -204 236 0
-56 204 236 0
-57 -205 -237 0
57 205 -237 0
57 -205 237 0
-57 205 237 0
-58 -206 -238 0
58 206 -238 0
58 -206 238 0
-58 206 238 0
-59 -207 -239 0
59 207 -239 0
59 -207 239 0
-59 207 239 0
-60 -208 -240 0
60 208 -240 0
60 -208 240 0
-60 208 240 0
-61 -209 -241 0
61 209 -241 0
61 -209 241 0
-61 209 241 0
-62 -210 -242 0
62 210 -242 0
62 -210 242 0
-62 210 242 0
-63 -211 -243 0
63 211 -243 0
63 -211 243 0
-63 211 243 0
-64 -212 -244 0
64 212 -244 0
64 -212 244 0
-64 212 244 0
-245 213 0
-245 114 0
-213 -114 245 0
-246 214 0
-246 115 0
-214 -115 246 0
-247 215 0
-247 116 0
-215 -116 247 0
-248 216 0
-248 65 0
-216 -65 248 0
-249 217 0
-249 66 0
-217 -66 249 0
-250 218 0
-250 67 0
-218 -67 250 0
-251 219 0
-251 68 0
-219 -68 251 0
-252 220 0
-252 69 0
-220 -69 252 0
-253 221 0
-253 70 0
-221 -70 253 0
-254 222 0
-254 71 0
-222 -71 254 0
-255 223 0
-255 72 0
-223 -72 255 0
-256 224 0
-256 73 0
-224 -73 256 0
-257 225 0
-257 74 0
-225 -74 257 0
-258 226 0
-258 75 0
-226 -75 258 0
-259 227 0
-259 76 0
-227 -76 259 0
-260 228 0
-260 77 0
-228 -77 260 0
-261 229 0
-261 78 0
-229 -78 261 0
-262 230 0
-262 79 0
-230 -79 262 0
-263 231 0
-263 80 0
-231 -80 263 0
-264 232 0
-264 81 0
-232 -81 264 0
-265 233 0
-265 82 0
-233 -82 265 0
-266 234 0
-266 83 0
-234 -83 266 0
-267 235 0
-267 84 0
-235 -84 267 0
-268 236 0
-268 85 0
-236 -85 268 0
-269 237 0
-269 86 0
-237 -86 269 0
-270 238 0
-270 87 0
-238 -87 270 0
-271 239 0
-271 88 0
-239 -88 271 0
-272 240 0
-272 89 0
-240 -89 272 0
-273 241 0
-273 90 0
-241 -90 273 0
-274 242 0
-274 91 0
-242 -91 274 0
-275 243 0
-275 92 0
-243 -92 275 0
-276 244 0
-276 93 0
-244 -93 276 0
-245 -242 -277 0
245 242 -277 0
245 -242 277 0
-245 242 277 0
-246 -243 -278 0
246 243 -278 0
246 -243 278 0
-246 243 278 0
-247 -244 -279 0
247 244 -279 0
247 -244 279 0
-247 244 279 0
-248 -213 -280 0
248 213 -280 0
248 -213 280 0
-248 213 280 0
-249 -214 -281 0
249 214 -281 0
249 -214 281 0
-249 214 281 0
-250 -215 -282 0
250 215 -282 0
250 -215 282 0
-250 215 282 0
-251 -216 -283 0
251 216 -283 0
251 -216 283 0
-251 216 283 0
-252 -217 -284 0
252 217 -284 0
252 -217 284 0
-252 217 284 0
-253 -218 -285 0
253 218 -285 0
253 -218 285 0
-253 218 285 0
-254 -219 -286 0
254 219 -286 0
254 -219 286 0
-254 219 286 0
-255 -220 -287 0
255 220 -287 0
255 -220 287 0
-255 220 287 0
-256 -221 -288 0
256 221 -288 0
256 -221 288 0
-256 221 288 0
-257 -222 -289 0
257 222 -289 0
257 -222 289 0
-257 222 289 0
-258 -223 -290 0
258 223 -290 0
258 -223 290 0
-258 223 290 0
-259 -224 -291 0
259 224 -291 0
259 -224 291 0
-259 224 291 0
-260 -225 -292 0
260 225 -292 0
260 -225 292 0
-260 225 292 0
-261 -226 -293 0
261 226 -293 0
261 -226 293 0
-261 226 293 0
-262 -227 -294 0
262 227 -294 0
262 -227 294 0
-262 227 294 0
-263 -228 -295 0
263 228 -295 0
263 -228 295 0
-263 228 295 0
-264 -229 -296 0
264 229 -296 0
264 -229 296 0
-264 229 296 0
-265 -230 -297 0
265 230 -297 0
265 -230 297 0
-265 230 297 0
-266 -231 -298 0
266 231 -298 0
266 -231 298 0
-266 231 298 0
-267 -232 -299 0
267 232 -299 0
267 -232 299 0
-267 232 299 0
-268 -233 -300 0
268 233 -300 0
268 -233 300 0
-268 233 300 0
-269 -234 -301 0
269 234 -301 0
269 -234 301 0
-269 234 301 0
-270 -235 -302 0
270 235 -302 0
270 -235 302 0
-270 235 302 0
-271 -236 -303 0
271 236 -303 0
271 -236 303 0
-271 236 303 0
-272 -237 -304 0
272 237 -304 0
272 -237 304 0
-272 237 304 0
-273 -238 -305 0
273 238 -305 0
273 -238 305 0
-273 238 305 0
-274 -239 -306 0
274 239 -306 0
274 -239 306 0
-274 239 306 0
-275 -240 -307 0
275 240 -307 0
275 -240 307 0
-275 240 307 0
-276 -241 -308 0
276 241 -308 0
276 -241 308 0
-276 241 308 0
-277 -114 -309 0
277 114 -309 0
277 -114 309 0
-277 114 309 0
-278 -115 -310 0
278 115 -310 0
278 -115 310 0
-278 115 310 0
-279 -116 -311 0
279 116 -311 0
279 -116 311 0
-279 116 311 0
-280 -65 -312 0
280 65 -312 0
280 -65 312 0
-280 65 312 0
-281 -66 -313 0
281 66 -313 0
281 -66 313 0
-281 66 313 0
-282 -67 -314 0
282 67 -314 0
282 -67 314 0
-282 67 314 0
-283 -68 -315 0
283 68 -315 0
283 -68 315 0
-283 68 315 0
-284 -69 -316 0
284 69 -316 0
284 -69 316 0
-284 69 316 0
-285 -70 -317 0
285 70 -317 0
285 -70 317 0
-285 70 317 0
-286 -71 -318 0
286 71 -318 0
286 -71 318 0
-286 71 318 0
-287 -72 -319 0
287 72 -319 0
287 -72 319 0
-287 72 319 0
-288 -73 -320 0
288 73 -320 0
288 -73 320 0
-288 73 320 0
-289 -74 -321 0
289 74 -321 0
289 -74 321 0
-289 74 321 0
-290 -75 -322 0
290 75 -322 0
290 -75 322 0
-290 75 322 0
-291 -76 -323 0
291 76 -323 0
291 -76 323 0
-291 76 323 0
-292 -77 -324 0
292 77 -324 0
292 -77 324 0
-292 77 324 0
-293 -78 -325 0
293 78 -325 0
293 -78 325 0
-293 78 325 0
-294 -79 -326 0
294 79 -326 0
294 -79 326 0
-294 79 326 0
-295 -80 -327 0
295 80 -327 0
295 -80 327 0
-295 80 327 0
-296 -81 -328 0
296 81 -328 0
296 -81 328 0
-296 81 328 0
-297 -82 -329 0
297 82 -329 0
297 -82 329 0
-297 82 329 0
-298 -83 -330 0
298 83 -330 0
298 -83 330 0
-298 83 330 0
-299 -84 -331 0
299 84 -331 0
299 -84 331 0
-299 84 331 0
-300 -85 -332 0
300 85 -332 0
300 -85 332 0
-300 85 332 0
-301 -86 -333 0
301 86 -333 0
301 -86 333 0
-301 86 333 0
-302 -87 -334 0
302 87 -334 0
302 -87 334 0
-302 87 334 0
-303 -88 -335 0
303 88 -335 0
303 -88 335 0
-303 88 335 0
-304 -89 -336 0
304 89 -336 0
304 -89 336 0
-304 89 336 0
-305 -90 -337 0
305 90 -337 0
305 -90 337 0
-305 90 337 0
-306 -91 -338 0
306 91 -338 0
306 -91 338 0
-306 91 338 0
-307 -92 -339 0
307 92 -339 0
307 -92 339 0
-307 92 339 0
-308 -93 -340 0
308 93 -340 0
308 -93 340 0
-308 93 340 0
-1 -309 -341 0
1 309 -341 0
1 -309 341 0
-1 309 341 0
-2 -310 -342 0
2 310 -342 0
2 -310 342 0
-2 310 342 0
-3 -311 -343 0
3 311 -343 0
3 -311 343 0
-3 311 343 0
-4 -312 -344 0
4 312 -344 0
4 -312 344 0
-4 312 344 0
-5 -313 -345 0
5 313 -345 0
5 -313 345 0
-5 313 345 0
-6 -314 -346 0
6 314 -346 0
6 -314 346 0
-6 314 346 0
-7 -315 -347 0
7 315 -347 0
7 -315 347 0
-7 315 347 0
-8 -316 -348 0
8 316 -348 0
8 -316 348 0
-8 316 348 0
-9 -317 -349 0
9 317 -349 0
9 -317 349 0
-9 317 349 0
-10 -318 -350 0
10 318 -350 0
10 -318 350 0
-10 318 350 0
-11 -319 -351 0
11 319 -351 0
11 -319 351 0
-11 319 351 0
-12 -320 -352 0
12 320 -352 0
12 -320 352 0
-12 320 352 0
-13 -321 -353 0
13 321 -353 0
13 -321 353 0
-13 321 353 0
-14 -322 -354 0
14 322 -354 0
14 -322 354 0
-14 322 354 0
-15 -323 -355 0
15 323 -355 0
15 -323 355 0
-15 323 355 0
-16 -324 -356 0
16 324 -356 0
16 -324 356 0
-16 324 356 0
-17 -325 -357 0
17 325 -357 0
17 -325 357 0
-17 325 357 0
-18 -326 -358 0
18 326 -358 0
18 -326 358 0
-18 326 358 0
-19 -327 -359 0
19 327 -359 0
19 -327 359 0
-19 327 359 0
-20 -328 -360 0
20 328 -360 0
20 -328 360 0
-20 328 360 0
-21 -329 -361 0
21 329 -361 0
21 -329 361 0
-21 329 361 0
-22 -330 -362 0
22 330 -362 0
22 -330 362 0
-22 330 362 0
-23 -331 -363 0
23 331 -363 0
23 -331 363 0
-23 331 363 0
-24 -332 -364 0
24 332 -364 0
24 -332 364 0
-24 332 364 0
-25 -333 -365 0
25 333 -365 0
25 -333 365 0
-25 333 365 0
-26 -334 -366 0
26 334 -366 0
26 -334 366 0
-26 334 366 0
-27 -335 -367 0
27 335 -367 0
27 -335 367 0
-27 335 367 0
-28 -336 -368 0
28 336 -368 0
28 -336 368 0
-28 336 368 0
-29 -337 -369 0
29 337 -369 0
29 -337 369 0
-29 337 369 0
-30 -338 -370 0
30 338 -370 0
30 -338 370 0
-30 338 370 0
-31 -339 -371 0
31 339 -371 0
31 -339 371 0
-31 339 371 0
-32 -340 -372 0
32 340 -372 0
32 -340 372 0
-32 340 372 0
-373 341 0
-373 111 0
-341 -111 373 0
-374 342 0
-374 112 0
-342 -112 374 0
-375 343 0
-375 113 0
-343 -113 375 0
-376 344 0
-376 114 0
-344 -114 376 0
-377 345 0
-377 115 0
-345 -115 377 0
-378 346 0
-378 116 0
-346 -116 378 0
-379 347 0
-379 65 0
-347 -65 379 0
-380 348 0
-380 66 0
-348 -66 380 0
-381 349 0
-381 67 0
-349 -67 381 0
-382 350 0
-382 68 0
-350 -68 382 0
-383 351 0
-383 69 0
-351 -69 383 0
-384 352 0
-384 70 0
-352 -70 384 0
-385 353 0
-385 71 0
-353 -71 385 0
-386 354 0
-386 72 0
-354 -72 386 0
-387 355 0
-387 73 0
-355 -73 387 0
-388 356 0
-388 74 0
-356 -74 388 0
-389 357 0
-389 75 0
-357 -75 389 0
-390 358 0
-390 76 0
-358 -76 390 0
-391 359 0
-391 77 0
-359 -77 391 0
-392 360 0
-392 78 0
-360 -78 392 0
-393 361 0
-393 79 0
-361 -79 393 0
-394 362 0
-394 80 0
-362 -80 394 0
-395 363 0
-395 81 0
-363 -81 395 0
-396 364 0
-396 82 0
-364 -82 396 0
-397 365 0
-397 83 0
-365 -83 397 0
-398 366 0
-398 84 0
-366 -84 398 0
-399 367 0
-399 85 0
-367 -85 399 0
-400 368 0
-400 86 0
-368 -86 400 0
-401 369 0
-401 87 0
-369 -87 401 0
-402 370 0
-402 88 0
-370 -88 402 0
-403 371 0
-403 89 0
-371 -89 403 0
-404 372 0
-404 90 0
-372 -90 404 0
-373 -370 -405 0
373 370 -405 0
373 -370 405 0
-373 370 405 0
-374 -371 -406 0
374 371 -406 0
374 -371 406 0
-374 371 406 0
-375 -372 -407 0
375 372 -407 0
375 -372 407 0
-375 372 407 0
-376 -341 -408 0
376 341 -408 0
376 -341 408 0
-376 341 408 0
-377 -342 -409 0
377 342 -409 0
377 -342 409 0
-377 342 409 0
-378 -343 -410 0
378 343 -410 0
378 -343 410 0
-378 343 410 0
-379 -344 -411 0
379 344 -411 0
379 -344 411 0
-379 344 411 0
-380 -345 -412 0
380 345 -412 0
380 -345 412 0
-380 345 412 0
-381 -346 -413 0
381 346 -413 0
381 -346 413 0
-381 346 413 0
-382 -347 -414 0
382 347 -414 0
382 -347 414 0
-382 347 414 0
-383 -348 -415 0
383 348 -415 0
383 -348 415 0
-383 348 415 0
-384 -349 -416 0
384 349 -416 0
384 -349 416 0
-384 349 416 0
-385 -350 -417 0
385 350 -417 0
385 -350 417 0
-385 350 417 0
-386 -351 -418 0
386 351 -418 0
386 -351 418 0
-386 351 418 0
-387 -352 -419 0
387 352 -419 0
387 -352 419 0
-387 352 419 0
-388 -353 -420 0
388 353 -420 0
388 -353 420 0
-388 353 420 0
-389 -354 -421 0
389 354 -421 0
389 -354 421 0
-389 354 421 0
-390 -355 -422 0
390 355 -422 0
390 -355 422 0
-390 355 422 0
-391 -356 -423 0
391 356 -423 0
391 -356 423 0
-391 356 423 0
-392 -357 -424 0
392 357 -424 0
392 -357 424 0
-392 357 424 0
-393 -358 -425 0
393 358 -425 0
393 -358 425 0
-393 358 425 0
-394 -359 -426 0
394 359 -426 0
394 -359 426 0
-394 359 426 0
-395 -360 -427 0
395 360 -427 0
395 -360 427 0
-395 360 427 0
-396 -361 -428 0
396 361 -428 0
396 -361 428 0
-396 361 428 0
-397 -362 -429 0
397 362 -429 0
397 -362 429 0
-397 362 429 0
-398 -363 -430 0
398 363 -430 0
398 -363 430 0
-398 363 430 0
-399 -364 -431 0
399 364 -431 0
399 -364 431 0
-399 364 431 0
-400 -365 -432 0
400 365 -432 0
400 -365 432 0
-400 365 432 0
-401 -366 -433 0
401 366 -433 0
401 -366 433 0
-401 366 433 0
-402 -367 -434 0
402 367 -434 0
402 -367 434 0
-402 367 434 0
-403 -368 -435 0
403 368 -435 0
403 -368 435 0
-403 368 435 0
-404 -369 -436 0
404 369 -436 0
404 -369 436 0
-404 369 436 0
-405 -111 -437 0
405 111 -437 0
405 -111 437 0
-405 111 437 0
-406 -112 -438 0
406 112 -438 0
406 -112 438 0
-406 112 438 0
-407 -113 -439 0
407 113 -439 0
407 -113 439 0
-407 113 439 0
-408 -114 -440 0
408 114 -440 0
408 -114 440 0
-408 114 440 0
-409 -115 -441 0
409 115 -441 0
409 -115 441 0
-409 115 441 0
-410 -116 -442 0
410 116 -442 0
410 -116 442 0
-410 116 442 0
-411 -65 -443 0
411 65 -443 0
411 -65 443 0
-411 65 443 0
-412 -66 -444 0
412 66 -444 0
412 -66 444 0
-412 66 444 0
-413 -67 -445 0
413 67 -445 0
413 -67 445 0
-413 67 445 0
-414 -68 -446 0
414 68 -446 0
414 -68 446 0
-414 68 446 0
-415 -69 -447 0
415 69 -447 0
415 -69 447 0
-415 69 447 0
-416 -70 -448 0
416 70 -448 0
416 -70 448 0
-416 70 448 0
-417 -71 -449 0
417 71 -449 0
417 -71 449 0
-417 71 449 0
-418 -72 -450 0
418 72 -450 0
418 -72 450 0
-418 72 450 0
-419 -73 -451 0
419 73 -451 0
419 -73 451 0
-419 73 451 0
-420 -74 -452 0
420 74 -452 0
420 -74 452 0
-420 74 452 0
-421 -75 -453 0
421 75 -453 0
421 -75 453 0
-421 75 453 0
-422 -76 -454 0
422 76 -454 0
422 -76 454 0
-422 76 454 0
-423 -77 -455 0
423 77 -455 0
423 -77 455 0
-423 77 455 0
-424 -78 -456 0
424 78 -456 0
424 -78 456 0
-424 78 456 0
-425 -79 -457 0
425 79 -457 0
425 -79 457 0
-425 79 457 0
-426 -80 -458 0
426 80 -458 0
426 -80 458 0
-426 80 458 0
-427 -81 -459 0
427 81 -459 0
427 -81 459 0
-427 81 459 0
-428 -82 -460 0
428 82 -460 0
428 -82 460 0
-428 82 460 0
-429 -83 -461 0
429 83 -461 0
429 -83 461 0
-429 83 461 0
-430 -84 -462 0
430 84 -462 0
430 -84 462 0
-430 84 462 0
-431 -85 -463 0
431 85 -463 0
431 -85 463 0
-431 85 463 0
-432 -86 -464 0
432 86 -464 0
432 -86 464 0
-432 86 464 0
-433 -87 -465 0
433 87 -465 0
433 -87 465 0
-433 87 465 0
-434 -88 -466 0
434 88 -466 0
434 -88 466 0
-434 88 466 0
-435 -89 -467 0
435 89 -467 0
435 -89 467 0
-435 89 467 0
-436 -90 -468 0
436 90 -468 0
436 -90 468 0
-436 90 468 0
-213 -437 -469 0
213 437 -469 0
213 -437 469 0
-213 437 469 0
-214 -438 -470 0
214 438 -470 0
214 -438 470 0
-214 438 470 0
-215 -439 -471 0
215 439 -471 0
215 -439 471 0
-215 439 471 0
-216 -440 -472 0
216 440 -472 0
216 -440 472 0
-216 440 472 0
-217 -441 -473 0
217 441 -473 0
217 -441 473 0
-217 441 473 0
-218 -442 -474 0
218 442 -474 0
218 -442 474 0
-218 442 474 0
-219 -443 -475 0
219 443 -475 0
219 -443 475 0
-219 443 475 0
-220 -444 -476 0
220 444 -476 0
220 -444 476 0
-220 444 476 0
-221 -445 -477 0
221 445 -477 0
221 -445 477 0
-221 445 477 0
-222 -446 -478 0
222 446 -478 0
222 -446 478 0
-222 446 478 0
-223 -447 -479 0
223 447 -479 0
223 -447 479 0
-223 447 479 0
-224 -448 -480 0
224 448 -480 0
224 -448 480 0
-224 448 480 0
-225 -449 -481 0
225 449 -481 0
225 -449 481 0
-225 449 481 0
-226 -450 -482 0
226 450 -482 0
226 -450 482 0
-226 450 482 0
-227 -451 -483 0
227 451 -483 0
227 -451 483 0
-227 451 483 0
-228 -452 -484 0
228 452 -484 0
228 -452 484 0
-228 452 484 0
-229 -453 -485 0
229 453 -485 0
229 -453 485 0
-229 453 485 0
-230 -454 -486 0
230 454 -486 0
230 -454 486 0
-230 454 486 0
-231 -455 -487 0
231 455 -487 0
231 -455 487 0
-231 455 487 0
-232 -456 -488 0
232 456 -488 0
232 -456 488 0
-232 456 488 0
-233 -457 -489 0
233 457 -489 0
233 -457 489 0
-233 457 489 0
-234 -458 -490 0
234 458 -490 0
234 -458 490 0
-234 458 490 0
-235 -459 -491 0
235 459 -491 0
235 -459 491 0
-235 459 491 0
-236 -460 -492 0
236 460 -492 0
236 -460 492 0
-236 460 492 0
-237 -461 -493 0
237 461 -493 0
237 -461 493 0
-237 461 493 0
-238 -462 -494 0
238 462 -494 0
238 -462 494 0
-238 462 494 0
-239 -463 -495 0
239 463 -495 0
239 -463 495 0
-239 463 495 0
-240 -464 -496 0
240 464 -496 0
240 -464 496 0
-240 464 496 0
-241 -465 -497 0
241 465 -497 0
241 -465 497 0
-241 465 497 0
-242 -466 -498 0
242 466 -498 0
242 -466 498 0
-242 466 498 0
-243 -467 -499 0
243 467 -499 0
243 -467 499 0
-243 467 499 0
-244 -468 -500 0
244 468 -500 0
244 -468 500 0
-244 468 500 0
-501 469 0
-501 108 0
-469 -108 501 0
-502 470 0
-502 109 0
-470 -109 502 0
-503 471 0
-503 110 0
-471 -110 503 0
-504 472 0
-504 111 0
-472 -111 504 0
-505 473 0
-505 112 0
-473 -112 505 0
-506 474 0
-506 113 0
-474 -113 506 0
-507 475 0
-507 114 0
-475 -114 507 0
-508 476 0
-508 115 0
-476 -115 508 0
-509 477 0
-509 116 0
-477 -116 509 0
-510 478 0
-510 65 0
-478 -65 510 0
-511 479 0
-511 66 0
-479 -66 511 0
-512 480 0
-512 67 0
-480 -67 512 0
-513 481 0
-513 68 0
-481 -68 513 0
-514 482 0
-514 69 0
-482 -69 514 0
-515 483 0
-515 70 0
-483 -70 515 0
-516 484 0
-516 71 0
-484 -71 516 0
-517 485 0
-517 72 0
-485 -72 517 0
-518 486 0
-518 73 0
-486 -73 518 0
-519 487 0
-519 74 0
-487 -74 519 0
-520 488 0
-520 75 0
-488 -75 520 0
-521 489 0
-521 76 0
-489 -76 521 0
-522 490 0
-522 77 0
-490 -77 522 0
-523 491 0
-523 78 0
-491 -78 523 0
-524 492 0
-524 79 0
-492 -79 524 0
-525 493 0
-525 80 0
-493 -80 525 0
-526 494 0
-526 81 0
-494 -81 526 0
-527 495 0
-527 82 0
-495 -82 527 0
-528 496 0
-528 83 0
-496 -83 528 0
-529 497 0
-529 84 0
-497 -84 529 0
-530 498 0
-530 85 0
-498 -85 530 0
-531 499 0
-531 86 0
-499 -86 531 0
-532 500 0
-532 87 0
-500 -87 532 0
-501 -498 -533 0
501 498 -533 0
501 -498 533 0
-501 498 533 0
-502 -499 -534 0
502 499 -534 0
502 -499 534 0
-502 499 534 0
-503 -500 -535 0
503 500 -535 0
503 -500 535 0
-503 500 535 0
-504 -469 -536 0
504 469 -536 0
504 -469 536 0
-504 469 536 0
-505 -470 -537 0
505 470 -537 0
505 -470 537 0
-505 470 537 0
-506 -471 -538 0
506 471 -538 0
506 -471 538 0
-506 471 538 0
-507 -472 -539 0
507 472 -539 0
507 -472 539 0
-507 472 539 0
-508 -473 -540 0
508 473 -540 0
508 -473 540 0
-508 473 540 0
-509 -474 -541 0
509 474 -541 0
509 -474 541 0
-509 474 541 0
-510 -475 -542 0
510 475 -542 0
510 -475 542 0
-510 475 542 0
-511 -476 -543 0
511 476 -543 0
511 -476 543 0
-511 476 543 0
-512 -477 -544 0
512 477 -544 0
512 -477 544 0
-512 477 544 0
-513 -478 -545 0
513 478 -545 0
513 -478 545 0
-513 478 545 0
-514 -479 -546 0
514 479 -546 0
514 -479 546 0
-514 479 546 0
-515 -480 -547 0
515 480 -547 0
515 -480 547 0
-515 480 547 0
-516 -481 -548 0
516 481 -548 0
516 -481 548 0
-516 481 548 0
-517 -482 -549 0
517 482 -549 0
517 -482 549 0
-517 482 549 0
-518 -483 -550 0
518 483 -550 0
518 -483 550 0
-518 483 550 0
-519 -484 -551 0
519 484 -551 0
519 -484 551 0
-519 484 551 0
-520 -485 -552 0
520 485 -552 0
520 -485 552 0
-520 485 552 0
-521 -486 -553 0
521 486 -553 0
521 -486 553 0
-521 486 553 0
-522 -487 -554 0
522 487 -554 0
522 -487 554 0
-522 487 554 0
-523 -488 -555 0
523 488 -555 0
523 -488 555 0
-523 488 555 0
-524 -489 -556 0
524 489 -556 0
524 -489 556 0
-524 489 556 0
-525 -490 -557 0
525 490 -557 0
525 -490 557 0
-525 490 557 0
-526 -491 -558 0
526 491 -558 0
526 -491 558 0
-526 491 558 0
-527 -492 -559 0
527 492 -559 0
527 -492 559 0
-527 492 559 0
-528 -493 -560 0
528 493 -560 0
528 -493 560 0
-528 493 560 0
-529 -494 -561 0
529 494 -561 0
529 -494 561 0
-529 494 561 0
-530 -495 -562 0
530 495 -562 0
530 -495 562 0
-530 495 562 0
-531 -496 -563 0
531 496 -563 0
531 -496 563 0
-531 496 563 0
-532 -497 -564 0
532 497 -564 0
532 -497 564 0
-532 497 564 0
-533 -108 -565 0
533 108 -565 0
533 -108 565 0
-533 108 565 0
-534 -109 -566 0
534 109 -566 0
534 -109 566 0
-534 109 566 0
-535 -110 -567 0
535 110 -567 0
535 -110 567 0
-535 110 567 0
-536 -111 -568 0
536 111 -568 0
536 -111 568 0
-536 111 568 0
-537 -112 -569 0
537 112 -569 0
537 -112 569 0
-537 112 569 0
-538 -113 -570 0
538 113 -570 0
538 -113 570 0
-538 113 570 0
-539 -114 -571 0
539 114 -571 0
539 -114 571 0
-539 114 571 0
-540 -115 -572 0
540 115 -572 0
540 -115 572 0
-540 115 572 0
-541 -116 -573 0
541 116 -573 0
541 -116 573 0
-541 116 573 0
-542 -65 -574 0
542 65 -574 0
542 -65 574 0
-542 65 574 0
-543 -66 -575 0
543 66 -575 0
543 -66 575 0
-543 66 575 0
-544 -67 -576 0
544 67 -576 0
544 -67 576 0
-544 67 576 0
-545 -68 -577 0
545 68 -577 0
545 -68 577 0
-545 68 577 0
-546 -69 -578 0
546 69 -578 0
546 -69 578 0
-546 69 578 0
-547 -70 -579 0
547 70 -579 0
547 -70 579 0
-547 70 579 0
-548 -71 -580 0
548 71 -580 0
548 -71 580 0
-548 71 580 0
-549 -72 -581 0
549 72 -581 0
549 -72 581 0
-549 72 581 0
-550 -73 -582 0
550 73 -582 0
550 -73 582 0
-550 73 582 0
-551 -74 -583 0
551 74 -583 0
551 -74 583 0
-551 74 583 0
-552 -75 -584 0
552 75 -584 0
552 -75 584 0
-552 75 584 0
-553 -76 -585 0
553 76 -585 0
553 -76 585 0
-553 76 585 0
-554 -77 -586 0
554 77 -586 0
554 -77 586 0
-554 77 586 0
-555 -78 -587 0
555 78 -587 0
555 -78 587 0
-555 78 587 0
-556 -79 -588 0
556 79 -588 0
556 -79 588 0
-556 79 588 0
-557 -80 -589 0
557 80 -589 0
557 -80 589 0
-557 80 589 0
-558 -81 -590 0
558 81 -590 0
558 -81 590 0
-558 81 590 0
-559 -82 -591 0
559 82 -591 0
559 -82 591 0
-559 82 591 0
-560 -83 -592 0
560 83 -592 0
560 -83 592 0
-560 83 592 0
-561 -84 -593 0
561 84 -593 0
561 -84 593 0
-561 84 593 0
-562 -85 -594 0
562 85 -594 0
562 -85 594 0
-562 85 594 0
-563 -86 -595 0
563 86 -595 0
563 -86 595 0
-563 86 595 0
-564 -87 -596 0
564 87 -596 0
564 -87 596 0
-564 87 596 0
-341 -565 -597 0
341 565 -597 0
341 -565 597 0
-341 565 597 0
-342 -566 -598 0
342 566 -598 0
342 -566 598 0
-342 566 598 0
-343 -567 -599 0
343 567 -599 0
343 -567 599 0
-343 567 599 0
-344 -568 -600 0
344 568 -600 0
344 -568 600 0
-344 568 600 0
-345 -569 -601 0
345 569 -601 0
345 -569 601 0
-345 569 601 0
-346 -570 -602 0
346 570 -602 0
346 -570 602 0
-346 570 602 0
-347 -571 -603 0
347 571 -603 0
347 -571 603 0
-347 571 603 0
-348 -572 -604 0
348 572 -604 0
348 -572 604 0
-348 572 604 0
-349 -573 -605 0
349 573 -605 0
349 -573 605 0
-349 573 605 0
-350 -574 -606 0
350 574 -606 0
350 -574 606 0
-350 574 606 0
-351 -575 -607 0
351 575 -607 0
351 -575 607 0
-351 575 607 0
-352 -576 -608 0
352 576 -608 0
352 -576 608 0
-352 576 608 0
-353 -577 -609 0
353 577 -609 0
353 -577 609 0
-353 577 609 0
-354 -578 -610 0
354 578 -610 0
354 -578 610 0
-354 578 610 0
-355 -579 -611 0
355 579 -611 0
355 -579 611 0
-355 579 611 0
-356 -580 -612 0
356 580 -612 0
356 -580 612 0
-356 580 612 0
-357 -581 -613 0
357 581 -613 0
357 -581 613 0
-357 581 613 0
-358 -582 -614 0
358 582 -614 0
358 -582 614 0
-358 582 614 0
-359 -583 -615 0
359 583 -615 0
359 -583 615 0
-359 583 615 0
-360 -584 -616 0
360 584 -616 0
360 -584 616 0
-360 584 616 0
-361 -585 -617 0
361 585 -617 0
361 -585 617 0
-361 585 617 0
-362 -586 -618 0
362 586 -618 0
362 -586 618 0
-362 586 618 0
-363 -587 -619 0
363 587 -619 0
363 -587 619 0
-363 587 619 0
-364 -588 -620 0
364 588 -620 0
364 -588 620 0
-364 588 620 0
-365 -589 -621 0
365 589 -621 0
365 -589 621 0
-365 589 621 0
-366 -590 -622 0
366 590 -622 0
366 -590 622 0
-366 590 622 0
-367 -591 -623 0
367 591 -623 0
367 -591 623 0
-367 591 623 0
-368 -592 -624 0
368 592 -624 0
368 -592 624 0
-368 592 624 0
-369 -593 -625 0
369 593 -625 0
369 -593 625 0
-369 593 625 0
-370 -594 -626 0
370 594 -626 0
370 -594 626 0
-370 594 626 0
-371 -595 -627 0
371 595 -627 0
371 -595 627 0
-371 595 627 0
-372 -596 -628 0
372 596 -628 0
372 -596 628 0
-372 596 628 0
-629 597 0
-629 105 0
-597 -105 629 0
-630 598 0
-630 106 0
-598 -106 630 0
-631 599 0
-631 107 0
-599 -107 631 0
-632 600 0
-632 108 0
-600 -108 632 0
-633 601 0
-633 109 0
-601 -109 633 0
-634 602 0
-634 110 0
-602 -110 634 0
-635 603 0
-635 111 0
-603 -111 635 0
-636 604 0
-636 112 0
-604 -112 636 0
-637 605 0
-637 113 0
-605 -113 637 0
-638 606 0
-638 114 0
-606 -114 638 0
-639 607 0
-639 115 0
-607 -115 639 0
-640 608 0
-640 116 0
-608 -116 640 0
-641 609 0
-641 65 0
-609 -65 641 0
-642 610 0
-642 66 0
-610 -66 642 0
-643 611 0
-643 67 0
-611 -67 643 0
-644 612 0
-644 68 0
-612 -68 644 0
-645 613 0
-645 69 0
-613 -69 645 0
-646 614 0
-646 70 0
-614 -70 646 0
-647 615 0
-647 71 0
-615 -71 647 0
-648 616 0
-648 72 0
-616 -72 648 0
-649 617 0
-649 73 0
-617 -73 649 0
-650 618 0
-650 74 0
-618 -74 650 0
-651 619 0
-651 75 0
-619 -75 651 0
-652 620 0
-652 76 0
-620 -76 652 0
-653 621 0
-653 77 0
-621 -77 653 0
-654 622 0
-654 78 0
-622 -78 654 0
-655 623 0
-655 79 0
-623 -79 655 0
-656 624 0
-656 80 0
-624 -80 656 0
-657 625 0
-657 81 0
-625 -81 657 0
-658 626 0
-658 82 0
-626 -82 658 0
-659 627 0
-659 83 0
-627 -83 659 0
-660 628 0
-660 84 0
-628 -84 660 0
-629 -626 -661 0
629 626 -661 0
629 -626 661 0
-629 626 661 0
-630 -627 -662 0
630 627 -662 0
630 -627 662 0
-630 627 662 0
-631 -628 -663 0
631 628 -663 0
631 -628 663 0
-631 628 663 0
-632 -597 -664 0
632 597 -664 0
632 -597 664 0
-632 597 664 0
-633 -598 -665 0
633 598 -665 0
633 -598 665 0
-633 598 665 0
-634 -599 -666 0
634 599 -666 0
634 -599 666 0
-634 599 666 0
-635 -600 -667 0
635 600 -667 0
635 -600 667 0
-635 600 667 0
-636 -601 -668 0
636 601 -668 0
636 -601 668 0
-636 601 668 0
-637 -602 -669 0
637 602 -669 0
637 -602 669 0
-637 602 669 0
-638 -603 -670 0
638 603 -670 0
638 -603 670 0
-638 603 670 0
-639 -604 -671 0
639 604 -671 0
639 -604 671 0
-639 604 671 0
-640 -605 -672 0
640 605 -672 0
640 -605 672 0
-640 605 672 0
-641 -606 -673 0
641 606 -673 0
641 -606 673 0
-641 606 673 0
-642 -607 -674 0
642 607 -674 0
642 -607 674 0
-642 607 674 0
-643 -608 -675 0
643 608 -675 0
643 -608 675 0
-643 608 675 0
-644 -609 -676 0
644 609 -676 0
644 -609 676 0
-644 609 676 0
-645 -610 -677 0
645 610 -677 0
645 -610 677 0
-645 610 677 0
-646 -611 -678 0
646 611 -678 0
646 -611 678 0
-646 611 678 0
-647 -612 -679 0
647 612 -679 0
647 -612 679 0
-647 612 679 0
-648 -613 -680 0
648 613 -680 0
648 -613 680 0
-648 613 680 0
-649 -614 -681 0
649 614 -681 0
649 -614 681 0
-649 614 681 0
-650 -615 -682 0
650 615 -682 0
650 -615 682 0
-650 615 682 0
-651 -616 -683 0
651 616 -683 0
651 -616 683 0
-651 616 683 0
-652 -617 -684 0
652 617 -684 0
652 -617 684 0
-652 617 684 0
-653 -618 -685 0
653 618 -685 0
653 -618 685 0
-653 618 685 0
-654 -619 -686 0
654 619 -686 0
654 -619 686 0
-654 619 686 0
-655 -620 -687 0
655 620 -687 0
655 -620 687 0
-655 620 687 0
-656 -621 -688 0
656 621 -688 0
656 -621 688 0
-656 621 688 0
-657 -622 -689 0
657 622 -689 0
657 -622 689 0
-657 622 689 0
-658 -623 -690 0
658 623 -690 0
658 -623 690 0
-658 623 690 0
-659 -624 -691 0
659 624 -691 0
659 -624 691 0
-659 624 691 0
-660 -625 -692 0
660 625 -692 0
660 -625 692 0
-660 625 692 0
-661 -105 -693 0
661 105 -693 0
661 -105 693 0
-661 105 693 0
-662 -106 -694 0
662 106 -694 0
662 -106 694 0
-662 106 694 0
-663 -107 -695 0
663 107 -695 0
663 -107 695 0
-663 107 695 0
-664 -108 -696 0
664 108 -696 0
664 -108 696 0
-664 108 696 0
-665 -109 -697 0
665 109 -697 0
665 -109 697 0
-665 109 697 0
-666 -110 -698 0
666 110 -698 0
666 -110 698 0
-666 110 698 0
-667 -111 -699 0
667 111 -699 0
667 -111 699 0
-667 111 699 0
-668 -112 -700 0
668 112 -700 0
668 -112 700 0
-668 112 700 0
-669 -113 -701 0
669 113 -701 0
669 -113 701 0
-669 113 701 0
-670 -114 -702 0
670 114 -702 0
670 -114 702 0
-670 114 702 0
-671 -115 -703 0
671 115 -703 0
671 -115 703 0
-671 115 703 0
-672 -116 -704 0
672 116 -704 0
672 -116 704 0
-672 116 704 0
-673 -65 -705 0
673 65 -705 0
673 -65 705 0
-673 65 705 0
-674 -66 -706 0
674 66 -706 0
674 -66 706 0
-674 66 706 0
-675 -67 -707 0
675 67 -707 0
675 -67 707 0
-675 67 707 0
-676 -68 -708 0
676 68 -708 0
676 -68 708 0
-676 68 708 0
-677 -69 -709 0
677 69 -709 0
677 -69 709 0
-677 69 709 0
-678 -70 -710 0
678 70 -710 0
678 -70 710 0
-678 70 710 0
-679 -71 -711 0
679 71 -711 0
679 -71 711 0
-679 71 711 0
-680 -72 -712 0
680 72 -712 0
680 -72 712 0
-680 72 712 0
-681 -73 -713 0
681 73 -713 0
681 -73 713 0
-681 73 713 0
-682 -74 -714 0
682 74 -714 0
682 -74 714 0
-682 74 714 0
-683 -75 -715 0
683 75 -715 0
683 -75 715 0
-683 75 715 0
-684 -76 -716 0
684 76 -716 0
684 -76 716 0
-684 76 716 0
-685 -77 -717 0
685 77 -717 0
685 -77 717 0
-685 77 717 0
-686 -78 -718 0
686 78 -718 0
686 -78 718 0
-686 78 718 0
-687 -79 -719 0
687 79 -719 0
687 -79 719 0
-687 79 719 0
-688 -80 -720 0
688 80 -720 0
688 -80 720 0
-688 80 720 0
-689 -81 -721 0
689 81 -721 0
689 -81 721 0
-689 81 721 0
-690 -82 -722 0
690 82 -722 0
690 -82 722 0
-690 82 722 0
-691 -83 -723 0
691 83 -723 0
691 -83 723 0
-691 83 723 0
-692 -84 -724 0
692 84 -724 0
692 -84 724 0
-692 84 724 0
-469 -693 -725 0
469 693 -725 0
469 -693 725 0
-469 693 725 0
-470 -694 -726 0
470 694 -726 0
470 -694 726 0
-470 694 726 0
-471 -695 -727 0
471 695 -727 0
471 -695 727 0
-471 695 727 0
-472 -696 -728 0
472 696 -728 0
472 -696 728 0
-472 696 728 0
-473 -697 -729 0
473 697 -729 0
473 -697 729 0
-473 697 729 0
-474 -698 -730 0
474 698 -730 0
474 -698 730 0
-474 698 730 0
-475 -699 -731 0
475 699 -731 0
475 -699 731 0
-475 699 731 0
-476 -700 -732 0
476 700 -732 0
476 -700 732 0
-476 700 732 0
-477 -701 -733 0
477 701 -733 0
477 -701 733 0
-477 701 733 0
-478 -702 -734 0
478 702 -734 0
478 -702 734 0
-478 702 734 0
-479 -703 -735 0
479 703 -735 0
479 -703 735 0
-479 703 735 0
-480 -704 -736 0
480 704 -736 0
480 -704 736 0
-480 704 736 0
-481 -705 -737 0
481 705 -737 0
481 -705 737 0
-481 705 737 0
-482 -706 -738 0
482 706 -738 0
482 -706 738 0
-482 706 738 0
-483 -707 -739 0
483 707 -739 0
483 -707 739 0
-483 707 739 0
-484 -708 -740 0
484 708 -740 0
484 -708 740 0
-484 708 740 0
-485 -709 -741 0
485 709 -741 0
485 -709 741 0
-485 709 741 0
-486 -710 -742 0
486 710 -742 0
486 -710 742 0
-486 710 742 0
-487 -711 -743 0
487 711 -743 0
487 -711 743 0
-487 711 743 0
-488 -712 -744 0
488 712 -744 0
488 -712 744 0
-488 712 744 0
-489 -713 -745 0
489 713 -745 0
489 -713 745 0
-489 713 745 0
-490 -714 -746 0
490 714 -746 0
490 -714 746 0
-490 714 746 0
-491 -715 -747 0
491 715 -747 0
491 -715 747 0
-491 715 747 0
-492 -716 -748 0
492 716 -748 0
492 -716 748 0
-492 716 748 0
-493 -717 -749 0
493 717 -749 0
493 -717 749 0
-493 717 749 0
-494 -718 -750 0
494 718 -750 0
494 -718 750 0
-494 718 750 0
-495 -719 -751 0
495 719 -751 0
495 -719 751 0
-495 719 751 0
-496 -720 -752 0
496 720 -752 0
496 -720 752 0
-496 720 752 0
-497 -721 -753 0
497 721 -753 0
497 -721 753 0
-497 721 753 0
-498 -722 -754 0
498 722 -754 0
498 -722 754 0
-498 722 754 0
-499 -723 -755 0
499 723 -755 0
499 -723 755 0
-499 723 755 0
-500 -724 -756 0
500 724 -756 0
500 -724 756 0
-500 724 756 0
-757 725 0
-757 102 0
-725 -102 757 0
-758 726 0
-758 103 0
-726 -103 758 0
-759 727 0
-759 104 0
-727 -104 759 0
-760 728 0
-760 105 0
-728 -105 760 0
-761 729 0
-761 106 0
-729 -106 761 0
-762 730 0
-762 107 0
-730 -107 762 0
-763 731 0
-763 108 0
-731 -108 763 0
-764 732 0
-764 109 0
-732 -109 764 0
-765 733 0
-765 110 0
-733 -110 765 0
-766 734 0
-766 111 0
-734 -111 766 0
-767 735 0
-767 112 0
-735 -112 767 0
-768 736 0
-768 113 0
-736 -113 768 0
-769 737 0
-769 114 0
-737 -114 769 0
-770 738 0
-770 115 0
-738 -115 770 0
-771 739 0
-771 116 0
-739 -116 771 0
-772 740 0
-772 65 0
-740 -65 772 0
-773 741 0
-773 66 0
-741 -66 773 0
-774 742 0
-774 67 0
-742 -67 774 0
-775 743 0
-775 68 0
-743 -68 775 0
-776 744 0
-776 69 0
-744 -69 776 0
-777 745 0
-777 70 0
-745 -70 777 0
-778 746 0
-778 71 0
-746 -71 778 0
-779 747 0
-779 72 0
-747 -72 779 0
-780 748 0
-780 73 0
-748 -73 780 0
-781 749 0
-781 74 0
-749 -74 781 0
-782 750 0
-782 75 0
-750 -75 782 0
-783 751 0
-783 76 0
-751 -76 783 0
-784 752 0
-784 77 0
-752 -77 784 0
-785 753 0
-785 78 0
-753 -78 785 0
-786 754 0
-786 79 0
-754 -79 786 0
-787 755 0
-787 80 0
-755 -80 787 0
-788 756 0
-788 81 0
-756 -81 788 0
-757 -754 -789 0
757 754 -789 0
757 -754 789 0
-757 754 789 0
-758 -755 -790 0
758 755 -790 0
758 -755 790 0
-758 755 790 0
-759 -756 -791 0
759 756 -791 0
759 -756 791 0
-759 756 791 0
-760 -725 -792 0
760 725 -792 0
760 -725 792 0
-760 725 792 0
-761 -726 -793 0
761 726 -793 0
761 -726 793 0
-761 726 793 0
-762 -727 -794 0
762 727 -794 0
762 -727 794 0
-762 727 794 0
-763 -728 -795 0
763 728 -795 0
763 -728 795 0
-763 728 795 0
-764 -729 -796 0
764 729 -796 0
764 -729 796 0
-764 729 796 0
-765 -730 -797 0
765 730 -797 0
765 -730 797 0
-765 730 797 0
-766 -731 -798 0
766 731 -798 0
766 -731 798 0
-766 731 798 0
-767 -732 -799 0
767 732 -799 0
767 -732 799 0
-767 732 799 0
-768 -733 -800 0
768 733 -800 0
768 -733 800 0
-768 733 800 0
-769 -734 -801 0
769 734 -801 0
769 -734 801 0
-769 734 801 0
-770 -735 -802 0
770 735 -802 0
770 -735 802 0
-770 735 802 0
-771 -736 -803 0
771 736 -803 0
771 -736 803 0
-771 736 803 0
-772 -737 -804 0
772 737 -804 0
772 -737 804 0
-772 737 804 0
-773 -738 -805 0
773 738 -805 0
773 -738 805 0
-773 738 805 0
-774 -739 -806 0
774 739 -806 0
774 -739 806 0
-774 739 806 0
-775 -740 -807 0
775 740 -807 0
775 -740 807 0
-775 740 807 0
-776 -741 -808 0
776 741 -808 0
776 -741 808 0
-776 741 808 0
-777 -742 -809 0
777 742 -809 0
777 -742 809 0
-777 742 809 0
-778 -743 -810 0
778 743 -810 0
778 -743 810 0
-778 743 810 0
-779 -744 -811 0
779 744 -811 0
779 -744 811 0
-779 744 811 0
-780 -745 -812 0
780 745 -812 0
780 -745 812 0
-780 745 812 0
-781 -746 -813 0
781 746 -813 0
781 -746 813 0
-781 746 813 0
-782 -747 -814 0
782 747 -814 0
782 -747 814 0
-782 747 814 0
-783 -748 -815 0
783 748 -815 0
783 -748 815 0
-783 748 815 0
-784 -749 -816 0
784 749 -816 0
784 -749 816 0
-784 749 816 0
-785 -750 -817 0
785 750 -817 0
785 -750 817 0
-785 750 817 0
-786 -751 -818 0
786 751 -818 0
786 -751 818 0
-786 751 818 0
-787 -752 -819 0
787 752 -819 0
787 -752 819 0
-787 752 819 0
-788 -753 -820 0
788 753 -820 0
788 -753 820 0
-788 753 820 0
-789 -102 -821 0
789 102 -821 0
789 -102 821 0
-789 102 821 0
-790 -103 -822 0
790 103 -822 0
790 -103 822 0
-790 103 822 0
-791 -104 -823 0
791 104 -823 0
791 -104 823 0
-791 104 823 0
-792 -105 -824 0
792 105 -824 0
792 -105 824 0
-792 105 824 0
-793 -106 -825 0
793 106 -825 0
793 -106 825 0
-793 106 825 0
-794 -107 -826 0
794 107 -826 0
794 -107 826 0
-794 107 826 0
-795 -108 -827 0
795 108 -827 0
795 -108 827 0
-795 108 827 0
-796 -109 -828 0
796 109 -828 0
796 -109 828 0
-796 109 828 0
-797 -110 -829 0
797 110 -829 0
797 -110 829 0
-797 110 829 0
-798 -111 -830 0
798 111 -830 0
798 -111 830 0
-798 111 830 0
-799 -112 -831 0
799 112 -831 0
799 -112 831 0
-799 112 831 0
-800 -113 -832 0
800 113 -832 0
800 -113 832 0
-800 113 832 0
-801 -114 -833 0
801 114 -833 0
801 -114 833 0
-801 114 833 0
-802 -115 -834 0
802 115 -834 0
802 -115 834 0
-802 115 834 0
-803 -116 -835 0
803 116 -835 0
803 -116 835 0
-803 116 835 0
-804 -65 -836 0
804 65 -836 0
804 -65 836 0
-804 65 836 0
-805 -66 -837 0
805 66 -837 0
805 -66 837 0
-805 66 837 0
-806 -67 -838 0
806 67 -838 0
806 -67 838 0
-806 67 838 0
-807 -68 -839 0
807 68 -839 0
807 -68 839 0
-807 68 839 0
-808 -69 -840 0
808 69 -840 0
808 -69 840 0
-808 69 840 0
-809 -70 -841 0
809 70 -841 0
809 -70 841 0
-809 70 841 0
-810 -71 -842 0
810 71 -842 0
810 -71 842 0
-810 71 842 0
-811 -72 -843 0
811 72 -843 0
811 -72 843 0
-811 72 843 0
-812 -73 -844 0
812 73 -844 0
812 -73 844 0
-812 73 844 0
-813 -74 -845 0
813 74 -845 0
813 -74 845 0
-813 74 845 0
-814 -75 -846 0
814 75 -846 0
814 -75 846 0
-814 75 846 0
-815 -76 -847 0
815 76 -847 0
815 -76 847 0
-815 76 847 0
-816 -77 -848 0
816 77 -848 0
816 -77 848 0
-816 77 848 0
-817 -78 -849 0
817 78 -849 0
817 -78 849 0
-817 78 849 0
-818 -79 -850 0
818 79 -850 0
818 -79 850 0
-818 79 850 0
-819 -80 -851 0
819 80 -851 0
819 -80 851 0
-819 80 851 0
-820 -81 -852 0
820 81 -852 0
820 -81 852 0
-820 81 852 0
-597 -821 -853 0
597 821 -853 0
597 -821 853 0
-597 821 853 0
-598 -822 -854 0
598 822 -854 0
598 -822 854 0
-598 822 854 0
-599 -823 -855 0
599 823 -855 0
599 -823 855 0
-599 823 855 0
-600 -824 -856 0
600 824 -856 0
600 -824 856 0
-600 824 856 0
-601 -825 -857 0
601 825 -857 0
601 -825 857 0
-601 825 857 0
-602 -826 -858 0
602 826 -858 0
602 -826 858 0
-602 826 858 0
-603 -827 -859 0
603 827 -859 0
603 -827 859 0
-603 827 859 0
-604 -828 -860 0
604 828 -860 0
604 -828 860 0
-604 828 860 0
-605 -829 -861 0
605 829 -861 0
605 -829 861 0
-605 829 861 0
-606 -830 -862 0
606 830 -862 0
606 -830 862 0
-606 830 862 0
-607 -831 -863 0
607 831 -863 0
607 -831 863 0
-607 831 863 0
-608 -832 -864 0
608 832 -864 0
608 -832 864 0
-608 832 864 0
-609 -833 -865 0
609 833 -865 0
609 -833 865 0
-609 833 865 0
-610 -834 -866 0
610 834 -866 0
610 -834 866 0
-610 834 866 0
-611 -835 -867 0
611 835 -867 0
611 -835 867 0
-611 835 867 0
-612 -836 -868 0
612 836 -868 0
612 -836 868 0
-612 836 868 0
-613 -837 -869 0
613 837 -869 0
613 -837 869 0
-613 837 869 0
-614 -838 -870 0
614 838 -870 0
614 -838 870 0
-614 838 870 0
-615 -839 -871 0
615 839 -871 0
615 -839 871 0
-615 839 871 0
-616 -840 -872 0
616 840 -872 0
616 -840 872 0
-616 840 872 0
-617 -841 -873 0
617 841 -873 0
617 -841 873 0
-617 841 873 0
-618 -842 -874 0
618 842 -874 0
618 -842 874 0
-618 842 874 0
-619 -843 -875 0
619 843 -875 0
619 -843 875 0
-619 843 875 0
-620 -844 -876 0
620 844 -876 0
620 -844 876 0
-620 844 876 0
-621 -845 -877 0
621 845 -877 0
621 -845 877 0
-621 845 877 0
-622 -846 -878 0
622 846 -878 0
622 -846 878 0
-622 846 878 0
-623 -847 -879 0
623 847 -879 0
623 -847 879 0
-623 847 879 0
-624 -848 -880 0
624 848 -880 0
624 -848 880 0
-624 848 880 0
-625 -849 -881 0
625 849 -881 0
625 -849 881 0
-625 849 881 0
-626 -850 -882 0
626 850 -882 0
626 -850 882 0
-626 850 882 0
-627 -851 -883 0
627 851 -883 0
627 -851 883 0
-627 851 883 0
-628 -852 -884 0
628 852 -884 0
628 -852 884 0
-628 852 884 0
-885 853 0
-885 99 0
-853 -99 885 0
-886 854 0
-886 100 0
-854 -100 886 0
-887 855 0
-887 101 0
-855 -101 887 0
-888 856 0
-888 102 0
-856 -102 888 0
-889 857 0
-889 103 0
-857 -103 889 0
-890 858 0
-890 104 0
-858 -104 890 0
-891 859 0
-891 105 0
-859 -105 891 0
-892 860 0
-892 106 0
-860 -106 892 0
-893 861 0
-893 107 0
-861 -107 893 0
-894 862 0
-894 108 0
-862 -108 894 0
-895 863 0
-895 109 0
-863 -109 895 0
-896 864 0
-896 110 0
-864 -110 896 0
-897 865 0
-897 111 0
-865 -111 897 0
-898 866 0
-898 112 0
-866 -112 898 0
-899 867 0
-899 113 0
-867 -113 899 0
-900 868 0
-900 114 0
-868 -114 900 0
-901 869 0
-901 115 0
-869 -115 901 0
-902 870 0
-902 116 0
-870 -116 902 0
-903 871 0
-903 65 0
-871 -65 903 0
-904 872 0
-904 66 0
-872 -66 904 0
-905 873 0
-905 67 0
-873 -67 905 0
-906 874 0
-906 68 0
-874 -68 906 0
-907 875 0
-907 69 0
-875 -69 907 0
-908 876 0
-908 70 0
-876 -70 908 0
-909 877 0
-909 71 0
-877 -71 909 0
-910 878 0
-910 72 0
-878 -72 910 0
-911 879 0
-911 73 0
-879 -73 911 0
-912 880 0
-912 74 0
-880 -74 912 0
-913 881 0
-913 75 0
-881 -75 913 0
-914 882 0
-914 76 0
-882 -76 914 0
-915 883 0
-915 77 0
-883 -77 915 0
-916 884 0
-916 78 0
-884 -78 916 0
-885 -882 -917 0
885 882 -917 0
885 -882 917 0
-885 882 917 0
-886 -883 -918 0
886 883 -918 0
886 -883 918 0
-886 883 918 0
-887 -884 -919 0
887 884 -919 0
887 -884 919 0
-887 884 919 0
-888 -853 -920 0
888 853 -920 0
888 -853 920 0
-888 853 920 0
-889 -854 -921 0
889 854 -921 0
889 -854 921 0
-889 854 921 0
-890 -855 -922 0
890 855 -922 0
890 -855 922 0
-890 855 922 0
-891 -856 -923 0
891 856 -923 0
891 -856 923 0
-891 856 923 0
-892 -857 -924 0
892 857 -924 0
892 -857 924 0
-892 857 924 0
-893 -858 -925 0
893 858 -925 0
893 -858 925 0
-893 858 925 0
-894 -859 -926 0
894 859 -926 0
894 -859 926 0
-894 859 926 0
-895 -860 -927 0
895 860 -927 0
895 -860 927 0
-895 860 927 0
-896 -861 -928 0
896 861 -928 0
896 -861 928 0
-896 861 928 0
-897 -862 -929 0
897 862 -929 0
897 -862 929 0
-897 862 929 0
-898 -863 -930 0
898 863 -930 0
898 -863 930 0
-898 863 930 0
-899 -864 -931 0
899 864 -931 0
899 -864 931 0
-899 864 931 0
-900 -865 -932 0
900 865 -932 0
900 -865 932 0
-900 865 932 0
-901 -866 -933 0
901 866 -933 0
901 -866 933 0
-901 866 933 0
-902 -867 -934 0
902 867 -934 0
902 -867 934 0
-902 867 934 0
-903 -868 -935 0
903 868 -935 0
903 -868 935 0
-903 868 935 0
-904 -869 -936 0
904 869 -936 0
904 -869 936 0
-904 869 936 0
-905 -870 -937 0
905 870 -937 0
905 -870 937 0
-905 870 937 0
-906 -871 -938 0
906 871 -938 0
906 -871 938 0
-906 871 938 0
-907 -872 -939 0
907 872 -939 0
907 -872 939 0
-907 872 939 0
-908 -873 -940 0
908 873 -940 0
908 -873 940 0
-908 873 940 0
-909 -874 -941 0
909 874 -941 0
909 -874 941 0
-909 874 941 0
-910 -875 -942 0
910 875 -942 0
910 -875 942 0
-910 875 942 0
-911 -876 -943 0
911 876 -943 0
911 -876 943 0
-911 876 943 0
-912 -877 -944 0
912 877 -944 0
912 -877 944 0
-912 877 944 0
-913 -878 -945 0
913 878 -945 0
913 -878 945 0
-913 878 945 0
-914 -879 -946 0
914 879 -946 0
914 -879 946 0
-914 879 946 0
-915 -880 -947 0
915 880 -947 0
915 -880 947 0
-915 880 947 0
-916 -881 -948 0
916 881 -948 0
916 -881 948 0
-916 881 948 0
-917 -99 -949 0
917 99 -949 0
917 -99 949 0
-917 99 949 0
-918 -100 -950 0
918 100 -950 0
918 -100 950 0
-918 100 950 0
-919 -101 -951 0
919 101 -951 0
919 -101 951 0
-919 101 951 0
-920 -102 -952 0
920 102 -952 0
920 -102 952 0
-920 102 952 0
-921 -103 -953 0
921 103 -953 0
921 -103 953 0
-921 103 953 0
-922 -104 -954 0
922 104 -954 0
922 -104 954 0
-922 104 954 0
-923 -105 -955 0
923 105 -955 0
923 -105 955 0
-923 105 955 0
-924 -106 -956 0
924 106 -956 0
924 -106 956 0
-924 106 956 0
-925 -107 -957 0
925 107 -957 0
925 -107 957 0
-925 107 957 0
-926 -108 -958 0
926 108 -958 0
926 -108 958 0
-926 108 958 0
-927 -109 -959 0
927 109 -959 0
927 -109 959 0
-927 109 959 0
-928 -110 -960 0
928 110 -960 0
928 -110 960 0
-928 110 960 0
-929 -111 -961 0
929 111 -961 0
929 -111 961 0
-929 111 961 0
-930 -112 -962 0
930 112 -962 0
930 -112 962 0
-930 112 962 0
-931 -113 -963 0
931 113 -963 0
931 -113 963 0
-931 113 963 0
-932 -114 -964 0
932 114 -964 0
932 -114 964 0
-932 114 964 0
-933 -115 -965 0
933 115 -965 0
933 -115 965 0
-933 115 965 0
-934 -116 -966 0
934 116 -966 0
934 -116 966 0
-934 116 966 0
-935 -65 -967 0
935 65 -967 0
935 -65 967 0
-935 65 967 0
-936 -66 -968 0
936 66 -968 0
936 -66 968 0
-936 66 968 0
-937 -67 -969 0
937 67 -969 0
937 -67 969 0
-937 67 969 0
-938 -68 -970 0
938 68 -970 0
938 -68 970 0
-938 68 970 0
-939 -69 -971 0
939 69 -971 0
939 -69 971 0
-939 69 971 0
-940 -70 -972 0
940 70 -972 0
940 -70 972 0
-940 70 972 0
-941 -71 -973 0
941 71 -973 0
941 -71 973 0
-941 71 973 0
-942 -72 -974 0
942 72 -974 0
942 -72 974 0
-942 72 974 0
-943 -73 -975 0
943 73 -975 0
943 -73 975 0
-943 73 975 0
-944 -74 -976 0
944 74 -976 0
944 -74 976 0
-944 74 976 0
-945 -75 -977 0
945 75 -977 0
945 -75 977 0
-945 75 977 0
-946 -76 -978 0
946 76 -978 0
946 -76 978 0
-946 76 978 0
-947 -77 -979 0
947 77 -979 0
947 -77 979 0
-947 77 979 0
-948 -78 -980 0
948 78 -980 0
948 -78 980 0
-948 78 980 0
-725 -949 -981 0
725 949 -981 0
725 -949 981 0
-725 949 981 0
-726 -950 -982 0
726 950 -982 0
726 -950 982 0
-726 950 982 0
-727 -951 -983 0
727 951 -983 0
727 -951 983 0
-727 951 983 0
-728 -952 -984 0
728 952 -984 0
728 -952 984 0
-728 952 984 0
-729 -953 -985 0
729 953 -985 0
729 -953 985 0
-729 953 985 0
-730 -954 -986 0
730 954 -986 0
730 -954 986 0
-730 954 986 0
-731 -955 -987 0
731 955 -987 0
731 -955 987 0
-731 955 987 0
-732 -956 -988 0
732 956 -988 0
732 -956 988 0
-732 956 988 0
-733 -957 -989 0
733 957 -989 0
733 -957 989 0
-733 957 989 0
-734 -958 -990 0
734 958 -990 0
734 -958 990 0
-734 958 990 0
-735 -959 -991 0
735 959 -991 0
735 -959 991 0
-735 959 991 0
-736 -960 -992 0
736 960 -992 0
736 -960 992 0
-736 960 992 0
-737 -961 -993 0
737 961 -993 0
737 -961 993 0
-737 961 993 0
-738 -962 -994 0
738 962 -994 0
738 -962 994 0
-738 962 994 0
-739 -963 -995 0
739 963 -995 0
739 -963 995 0
-739 963 995 0
-740 -964 -996 0
740 964 -996 0
740 -964 996 0
-740 964 996 0
-741 -965 -997 0
741 965 -997 0
741 -965 997 0
-741 965 997 0
-742 -966 -998 0
742 966 -998 0
742 -966 998 0
-742 966 998 0
-743 -967 -999 0
743 967 -999 0
743 -967 999 0
-743 967 999 0
-744 -968 -1000 0
744 968 -1000 0
744 -968 1000 0
-744 968 1000 0
-745 -969 -1001 0
745 969 -1001 0
745 -969 1001 0
-745 969 1001 0
-746 -970 -1002 0
746 970 -1002 0
746 -970 1002 0
-746 970 1002 0
-747 -971 -1003 0
747 971 -1003 0
747 -971 1003 0
-747 971 1003 0
-748 -972 -1004 0
748 972 -1004 0
748 -972 1004 0
-748 972 1004 0
-749 -973 -1005 0
749 973 -1005 0
749 -973 1005 0
-749 973 1005 0
-750 -974 -1006 0
750 974 -1006 0
750 -974 1006 0
-750 974 1006 0
-751 -975 -1007 0
751 975 -1007 0
751 -975 1007 0
-751 975 1007 0
-752 -976 -1008 0
752 976 -1008 0
752 -976 1008 0
-752 976 1008 0
-753 -977 -1009 0
753 977 -1009 0
753 -977 1009 0
-753 977 1009 0
-754 -978 -1010 0
754 978 -1010 0
754 -978 1010 0
-754 978 1010 0
-755 -979 -1011 0
755 979 -1011 0
755 -979 1011 0
-755 979 1011 0
-756 -980 -1012 0
756 980 -1012 0
756 -980 1012 0
-756 980 1012 0
-1013 981 0
-1013 96 0
-981 -96 1013 0
-1014 982 0
-1014 97 0
-982 -97 1014 0
-1015 983 0
-1015 98 0
-983 -98 1015 0
-1016 984 0
-1016 99 0
-984 -99 1016 0
-1017 985 0
-1017 100 0
-985 -100 1017 0
-1018 986 0
-1018 101 0
-986 -101 1018 0
-1019 987 0
-1019 102 0
-987 -102 1019 0
-1020 988 0
-1020 103 0
-988 -103 1020 0
-1021 989 0
-1021 104 0
-989 -104 1021 0
-1022 990 0
-1022 105 0
-990 -105 1022 0
-1023 991 0
-1023 106 0
-991 -106 1023 0
-1024 992 0
-1024 107 0
-992 -107 1024 0
-1025 993 0
-1025 108 0
-993 -108 1025 0
-1026 994 0
-1026 109 0
-994 -109 1026 0
-1027 995 0
-1027 110 0
-995 -110 1027 0
-1028 996 0
-1028 111 0
-996 -111 1028 0
-1029 997 0
-1029 112 0
-997 -112 1029 0
-1030 998 0
-1030 113 0
-998 -113 1030 0
-1031 999 0
-1031 114 0
-999 -114 1031 0
-1032 1000 0
-1032 115 0
-1000 -115 1032 0
-1033 1001 0
-1033 116 0
-1001 -116 1033 0
-1034 1002 0
-1034 65 0
-1002 -65 1034 0
-1035 1003 0
-1035 66 0
-1003 -66 1035 0
-1036 1004 0
-1036 67 0
-1004 -67 1036 0
-1037 1005 0
-1037 68 0
-1005 -68 1037 0
-1038 1006 0
-1038 69 0
-1006 -69 1038 0
-1039 1007 0
-1039 70 0
-1007 -70 1039 0
-1040 1008 0
-1040 71 0
-1008 -71 1040 0
-1041 1009 0
-1041 72 0
-1009 -72 1041 0
-1042 1010 0
-1042 73 0
-1010 -73 1042 0
-1043 1011 0
-1043 74 0
-1011 -74 1043 0
-1044 1012 0
-1044 75 0
-1012 -75 1044 0
-1013 -1010 -1045 0
1013 1010 -1045 0
1013 -1010 1045 0
-1013 1010 1045 0
-1014 -1011 -1046 0
1014 1011 -1046 0
1014 -1011 1046 0
-1014 1011 1046 0
-1015 -1012 -1047 0
1015 1012 -1047 0
1015 -1012 1047 0
-1015 1012 1047 0
-1016 -981 -1048 0
1016 981 -1048 0
1016 -981 1048 0
-1016 981 1048 0
-1017 -982 -1049 0
1017 982 -1049 0
1017 -982 1049 0
-1017 982 1049 0
-1018 -983 -1050 0
1018 983 -1050 0
1018 -983 1050 0
-1018 983 1050 0
-1019 -984 -1051 0
1019 984 -1051 0
1019 -984 1051 0
-1019 984 1051 0
-1020 -985 -1052 0
1020 985 -1052 0
1020 -985 1052 0
-1020 985 1052 0
-1021 -986 -1053 0
1021 986 -1053 0
1021 -986 1053 0
-1021 986 1053 0
-1022 -987 -1054 0
1022 987 -1054 0
1022 -987 1054 0
-1022 987 1054 0
-1023 -988 -1055 0
1023 988 -1055 0
1023 -988 1055 0
-1023 988 1055 0
-1024 -989 -1056 0
1024 989 -1056 0
1024 -989 1056 0
-1024 989 1056 0
-1025 -990 -1057 0
1025 990 -1057 0
1025 -990 1057 0
-1025 990 1057 0
-1026 -991 -1058 0
1026 991 -1058 0
1026 -991 1058 0
-1026 991 1058 0
-1027 -992 -1059 0
1027 992 -1059 0
1027 -992 1059 0
-1027 992 1059 0
-1028 -993 -1060 0
1028 993 -1060 0
1028 -993 1060 0
-1028 993 1060 0
-1029 -994 -1061 0
1029 994 -1061 0
1029 -994 1061 0
-1029 994 1061 0
-1030 -995 -1062 0
1030 995 -1062 0
1030 -995 1062 0
-1030 995 1062 0
-1031 -996 -1063 0
1031 996 -1063 0
1031 -996 1063 0
-1031 996 1063 0
-1032 -997 -1064 0
1032 997 -1064 0
1032 -997 1064 0
-1032 997 1064 0
-1033 -998 -1065 0
1033 998 -1065 0
1033 -998 1065 0
-1033 998 1065 0
-1034 -999 -1066 0
1034 999 -1066 0
1034 -999 1066 0
-1034 999 1066 0
-1035 -1000 -1067 0
1035 1000 -1067 0
1035 -1000 1067 0
-1035 1000 1067 0
-1036 -1001 -1068 0
1036 1001 -1068 0
1036 -1001 1068 0
-1036 1001 1068 0
-1037 -1002 -1069 0
1037 1002 -1069 0
1037 -1002 1069 0
-1037 1002 1069 0
-1038 -1003 -1070 0
1038 1003 -1070 0
1038 -1003 1070 0
-1038 1003 1070 0
-1039 -1004 -1071 0
1039 1004 -1071 0
1039 -1004 1071 0
-1039 1004 1071 0
-1040 -1005 -1072 0
1040 1005 -1072 0
1040 -1005 1072 0
-1040 1005 1072 0
-1041 -1006 -1073 0
1041 1006 -1073 0
1041 -1006 1073 0
-1041 1006 1073 0
-1042 -1007 -1074 0
1042 1007 -1074 0
1042 -1007 1074 0
-1042 1007 1074 0
-1043 -1008 -1075 0
1043 1008 -1075 0
1043 -1008 1075 0
-1043 1008 1075 0
-1044 -1009 -1076 0
1044 1009 -1076 0
1044 -1009 1076 0
-1044 1009 1076 0
-1045 -96 -1077 0
1045 96 -1077 0
1045 -96 1077 0
-1045 96 1077 0
-1046 -97 -1078 0
1046 97 -1078 0
1046 -97 1078 0
-1046 97 1078 0
-1047 -98 -1079 0
1047 98 -1079 0
1047 -98 1079 0
-1047 98 1079 0
-1048 -99 -1080 0
1048 99 -1080 0
1048 -99 1080 0
-1048 99 1080 0
-1049 -100 -1081 0
1049 100 -1081 0
1049 -100 1081 0
-1049 100 1081 0
-1050 -101 -1082 0
1050 101 -1082 0
1050 -101 1082 0
-1050 101 1082 0
-1051 -102 -1083 0
1051 102 -1083 0
1051 -102 1083 0
-1051 102 1083 0
-1052 -103 -1084 0
1052 103 -1084 0
1052 -103 1084 0
-1052 103 1084 0
-1053 -104 -1085 0
1053 104 -1085 0
1053 -104 1085 0
-1053 104 1085 0
-1054 -105 -1086 0
1054 105 -1086 0
1054 -105 1086 0
-1054 105 1086 0
-1055 -106 -1087 0
1055 106 -1087 0
1055 -106 1087 0
-1055 106 1087 0
-1056 -107 -1088 0
1056 107 -1088 0
1056 -107 1088 0
-1056 107 1088 0
-1057 -108 -1089 0
1057 108 -1089 0
1057 -108 1089 0
-1057 108 1089 0
-1058 -109 -1090 0
1058 109 -1090 0
1058 -109 1090 0
-1058 109 1090 0
-1059 -110 -1091 0
1059 110 -1091 0
1059 -110 1091 0
-1059 110 1091 0
-1060 -111 -1092 0
1060 111 -1092 0
1060 -111 1092 0
-1060 111 1092 0
-1061 -112 -1093 0
1061 112 -1093 0
1061 -112 1093 0
-1061 112 1093 0
-1062 -113 -1094 0
1062 113 -1094 0
1062 -113 1094 0
-1062 113 1094 0
-1063 -114 -1095 0
1063 114 -1095 0
1063 -114 1095 0
-1063 114 1095 0
-1064 -115 -1096 0
1064 115 -1096 0
1064 -115 1096 0
-1064 115 1096 0
-1065 -116 -1097 0
1065 116 -1097 0
1065 -116 1097 0
-1065 116 1097 0
-1066 -65 -1098 0
1066 65 -1098 0
1066 -65 1098 0
-1066 65 1098 0
-1067 -66 -1099 0
1067 66 -1099 0
1067 -66 1099 0
-1067 66 1099 0
-1068 -67 -1100 0
1068 67 -1100 0
1068 -67 1100 0
-1068 67 1100 0
-1069 -68 -1101 0
1069 68 -1101 0
1069 -68 1101 0
-1069 68 1101 0
-1070 -69 -1102 0
1070 69 -1102 0
1070 -69 1102 0
-1070 69 1102 0
-1071 -70 -1103 0
1071 70 -1103 0
1071 -70 1103 0
-1071 70 1103 0
-1072 -71 -1104 0
1072 71 -1104 0
1072 -71 1104 0
-1072 71 1104 0
-1073 -72 -1105 0
1073 72 -1105 0
1073 -72 1105 0
-1073 72 1105 0
-1074 -73 -1106 0
1074 73 -1106 0
1074 -73 1106 0
-1074 73 1106 0
-1075 -74 -1107 0
1075 74 -1107 0
1075 -74 1107 0
-1075 74 1107 0
-1076 -75 -1108 0
1076 75 -1108 0
1076 -75 1108 0
-1076 75 1108 0
-853 -1077 -1109 0
853 1077 -1109 0
853 -1077 1109 0
-853 1077 1109 0
-854 -1078 -1110 0
854 1078 -1110 0
854 -1078 1110 0
-854 1078 1110 0
-855 -1079 -1111 0
855 1079 -1111 0
855 -1079 1111 0
-855 1079 1111 0
-856 -1080 -1112 0
856 1080 -1112 0
856 -1080 1112 0
-856 1080 1112 0
-857 -1081 -1113 0
857 1081 -1113 0
857 -1081 1113 0
-857 1081 1113 0
-858 -1082 -1114 0
858 1082 -1114 0
858 -1082 1114 0
-858 1082 1114 0
-859 -1083 -1115 0
859 1083 -1115 0
859 -1083 1115 0
-859 1083 1115 0
-860 -1084 -1116 0
860 1084 -1116 0
860 -1084 1116 0
-860 1084 1116 0
-861 -1085 -1117 0
861 1085 -1117 0
861 -1085 1117 0
-861 1085 1117 0
-862 -1086 -1118 0
862 1086 -1118 0
862 -1086 1118 0
-862 1086 1118 0
-863 -1087 -1119 0
863 1087 -1119 0
863 -1087 1119 0
-863 1087 1119 0
-864 -1088 -1120 0
864 1088 -1120 0
864 -1088 1120 0
-864 1088 1120 0
-865 -1089 -1121 0
865 1089 -1121 0
865 -1089 1121 0
-865 1089 1121 0
-866 -1090 -1122 0
866 1090 -1122 0
866 -1090 1122 0
-866 1090 1122 0
-867 -1091 -1123 0
867 1091 -1123 0
867 -1091 1123 0
-867 1091 1123 0
-868 -1092 -1124 0
868 1092 -1124 0
868 -1092 1124 0
-868 1092 1124 0
-869 -1093 -1125 0
869 1093 -1125 0
869 -1093 1125 0
-869 1093 1125 0
-870 -1094 -1126 0
870 1094 -1126 0
870 -1094 1126 0
-870 1094 1126 0
-871 -1095 -1127 0
871 1095 -1127 0
871 -1095 1127 0
-871 1095 1127 0
-872 -1096 -1128 0
872 1096 -1128 0
872 -1096 1128 0
-872 1096 1128 0
-873 -1097 -1129 0
873 1097 -1129 0
873 -1097 1129 0
-873 1097 1129 0
-874 -1098 -1130 0
874 1098 -1130 0
874 -1098 1130 0
-874 1098 1130 0
-875 -1099 -1131 0
875 1099 -1131 0
875 -1099 1131 0
-875 1099 1131 0
-876 -1100 -1132 0
876 1100 -1132 0
876 -1100 1132 0
-876 1100 1132 0
-877 -1101 -1133 0
877 1101 -1133 0
877 -1101 1133 0
-877 1101 1133 0
-878 -1102 -1134 0
878 1102 -1134 0
878 -1102 1134 0
-878 1102 1134 0
-879 -1103 -1135 0
879 1103 -1135 0
879 -1103 1135 0
-879 1103 1135 0
-880 -1104 -1136 0
880 1104 -1136 0
880 -1104 1136 0
-880 1104 1136 0
-881 -1105 -1137 0
881 1105 -1137 0
881 -1105 1137 0
-881 1105 1137 0
-882 -1106 -1138 0
882 1106 -1138 0
882 -1106 1138 0
-882 1106 1138 0
-883 -1107 -1139 0
883 1107 -1139 0
883 -1107 1139 0
-883 1107 1139 0
-884 -1108 -1140 0
884 1108 -1140 0
884 -1108 1140 0
-884 1108 1140 0
-1141 1109 0
-1141 93 0
-1109 -93 1141 0
-1142 1110 0
-1142 94 0
-1110 -94 1142 0
-1143 1111 0
-1143 95 0
-1111 -95 1143 0
-1144 1112 0
-1144 96 0
-1112 -96 1144 0
-1145 1113 0
-1145 97 0
-1113 -97 1145 0
-1146 1114 0
-1146 98 0
-1114 -98 1146 0
-1147 1115 0
-1147 99 0
-1115 -99 1147 0
-1148 1116 0
-1148 100 0
-1116 -100 1148 0
-1149 1117 0
-1149 101 0
-1117 -101 1149 0
-1150 1118 0
-1150 102 0
-1118 -102 1150 0
-1151 1119 0
-1151 103 0
-1119 -103 1151 0
-1152 1120 0
-1152 104 0
-1120 -104 1152 0
-1153 1121 0
-1153 105 0
-1121 -105 1153 0
-1154 1122 0
-1154 106 0
-1122 -106 1154 0
-1155 1123 0
-1155 107 0
-1123 -107 1155 0
-1156 1124 0
-1156 108 0
-1124 -108 1156 0
-1157 1125 0
-1157 109 0
-1125 -109 1157 0
-1158 1126 0
-1158 110 0
-1126 -110 1158 0
-1159 1127 0
-1159 111 0
-1127 -111 1159 0
-1160 1128 0
-1160 112 0
-1128 -112 1160 0
-1161 1129 0
-1161 113 0
-1129 -113 1161 0
-1162 1130 0
-1162 114 0
-1130 -114 1162 0
-1163 1131 0
-1163 115 0
-1131 -115 1163 0
-1164 1132 0
-1164 116 0
-1132 -116 1164 0
-1165 1133 0
-1165 65 0
-1133 -65 1165 0
-1166 1134 0
-1166 66 0
-1134 -66 1166 0
-1167 1135 0
-1167 67 0
-1135 -67 1167 0
-1168 1136 0
-1168 68 0
-1136 -68 1168 0
-1169 1137 0
-1169 69 0
-1137 -69 1169 0
-1170 1138 0
-1170 70 0
-1138 -70 1170 0
-1171 1139 0
-1171 71 0
-1139 -71 1171 0
-1172 1140 0
-1172 72 0
-1140 -72 1172 0
-1141 -1138 -1173 0
1141 1138 -1173 0
1141 -1138 1173 0
-1141 1138 1173 0
-1142 -1139 -1174 0
1142 1139 -1174 0
1142 -1139 1174 0
-1142 1139 1174 0
-1143 -1140 -1175 0
1143 1140 -1175 0
1143 -1140 1175 0
-1143 1140 1175 0
-1144 -1109 -1176 0
1144 1109 -1176 0
1144 -1109 1176 0
-1144 1109 1176 0
-1145 -1110 -1177 0
1145 1110 -1177 0
1145 -1110 1177 0
-1145 1110 1177 0
-1146 -1111 -1178 0
1146 1111 -1178 0
1146 -1111 1178 0
-1146 1111 1178 0
-1147 -1112 -1179 0
1147 1112 -1179 0
1147 -1112 1179 0
-1147 1112 1179 0
-1148 -1113 -1180 0
1148 1113 -1180 0
1148 -1113 1180 0
-1148 1113 1180 0
-1149 -1114 -1181 0
1149 1114 -1181 0
1149 -1114 1181 0
-1149 1114 1181 0
-1150 -1115 -1182 0
1150 1115 -1182 0
1150 -1115 1182 0
-1150 1115 1182 0
-1151 -1116 -1183 0
1151 1116 -1183 0
1151 -1116 1183 0
-1151 1116 1183 0
-1152 -1117 -1184 0
1152 1117 -1184 0
1152 -1117 1184 0
-1152 1117 1184 0
-1153 -1118 -1185 0
1153 1118 -1185 0
1153 -1118 1185 0
-1153 1118 1185 0
-1154 -1119 -1186 0
1154 1119 -1186 0
1154 -1119 1186 0
-1154 1119 1186 0
-1155 -1120 -1187 0
1155 1120 -1187 0
1155 -1120 1187 0
-1155 1120 1187 0
-1156 -1121 -1188 0
1156 1121 -1188 0
1156 -1121 1188 0
-1156 1121 1188 0
-1157 -1122 -1189 0
1157 1122 -1189 0
1157 -1122 1189 0
-1157 1122 1189 0
-1158 -1123 -1190 0
1158 1123 -1190 0
1158 -1123 1190 0
-1158 1123 1190 0
-1159 -1124 -1191 0
1159 1124 -1191 0
1159 -1124 1191 0
-1159 1124 1191 0
-1160 -1125 -1192 0
1160 1125 -1192 0
1160 -1125 1192 0
-1160 1125 1192 0
-1161 -1126 -1193 0
1161 1126 -1193 0
1161 -1126 1193 0
-1161 1126 1193 0
-1162 -1127 -1194 0
1162 1127 -1194 0
1162 -1127 1194 0
-1162 1127 1194 0
-1163 -1128 -1195 0
1163 1128 -1195 0
1163 -1128 1195 0
-1163 1128 1195 0
-1164 -1129 -1196 0
1164 1129 -1196 0
1164 -1129 1196 0
-1164 1129 1196 0
-1165 -1130 -1197 0
1165 1130 -1197 0
1165 -1130 1197 0
-1165 1130 1197 0
-1166 -1131 -1198 0
1166 1131 -1198 0
1166 -1131 1198 0
-1166 1131 1198 0
-1167 -1132 -1199 0
1167 1132 -1199 0
1167 -1132 1199 0
-1167 1132 1199 0
-1168 -1133 -1200 0
1168 1133 -1200 0
1168 -1133 1200 0
-1168 1133 1200 0
-1169 -1134 -1201 0
1169 1134 -1201 0
1169 -1134 1201 0
-1169 1134 1201 0
-1170 -1135 -1202 0
1170 1135 -1202 0
1170 -1135 1202 0
-1170 1135 1202 0
-1171 -1136 -1203 0
1171 1136 -1203 0
1171 -1136 1203 0
-1171 1136 1203 0
-1172 -1137 -1204 0
1172 1137 -1204 0
1172 -1137 1204 0
-1172 1137 1204 0
-1173 -93 -1205 0
1173 93 -1205 0
1173 -93 1205 0
-1173 93 1205 0
-1174 -94 -1206 0
1174 94 -1206 0
1174 -94 1206 0
-1174 94 1206 0
-1175 -95 -1207 0
1175 95 -1207 0
1175 -95 1207 0
-1175 95 1207 0
-1176 -96 -1208 0
1176 96 -1208 0
1176 -96 1208 0
-1176 96 1208 0
-1177 -97 -1209 0
1177 97 -1209 0
1177 -97 1209 0
-1177 97 1209 0
-1178 -98 -1210 0
1178 98 -1210 0
1178 -98 1210 0
-1178 98 1210 0
-1179 -99 -1211 0
1179 99 -1211 0
1179 -99 1211 0
-1179 99 1211 0
-1180 -100 -1212 0
1180 100 -1212 0
1180 -100 1212 0
-1180 100 1212 0
-1181 -101 -1213 0
1181 101 -1213 0
1181 -101 1213 0
-1181 101 1213 0
-1182 -102 -1214 0
1182 102 -1214 0
1182 -102 1214 0
-1182 102 1214 0
-1183 -103 -1215 0
1183 103 -1215 0
1183 -103 1215 0
-1183 103 1215 0
-1184 -104 -1216 0
1184 104 -1216 0
1184 -104 1216 0
-1184 104 1216 0
-1185 -105 -1217 0
1185 105 -1217 0
1185 -105 1217 0
-1185 105 1217 0
-1186 -106 -1218 0
1186 106 -1218 0
1186 -106 1218 0
-1186 106 1218 0
-1187 -107 -1219 0
1187 107 -1219 0
1187 -107 1219 0
-1187 107 1219 0
-1188 -108 -1220 0
1188 108 -1220 0
1188 -108 1220 0
-1188 108 1220 0
-1189 -109 -1221 0
1189 109 -1221 0
1189 -109 1221 0
-1189 109 1221 0
-1190 -110 -1222 0
1190 110 -1222 0
1190 -110 1222 0
-1190 110 1222 0
-1191 -111 -1223 0
1191 111 -1223 0
1191 -111 1223 0
-1191 111 1223 0
-1192 -112 -1224 0
1192 112 -1224 0
1192 -112 1224 0
-1192 112 1224 0
-1193 -113 -1225 0
1193 113 -1225 0
1193 -113 1225 0
-1193 113 1225 0
-1194 -114 -1226 0
1194 114 -1226 0
1194 -114 1226 0
-1194 114 1226 0
-1195 -115 -1227 0
1195 115 -1227 0
1195 -115 1227 0
-1195 115 1227 0
-1196 -116 -1228 0
1196 116 -1228 0
1196 -116 1228 0
-1196 116 1228 0
-1197 -65 -1229 0
1197 65 -1229 0
1197 -65 1229 0
-1197 65 1229 0
-1198 -66 -1230 0
1198 66 -1230 0
1198 -66 1230 0
-1198 66 1230 0
-1199 -67 -1231 0
1199 67 -1231 0
1199 -67 1231 0
-1199 67 1231 0
-1200 -68 -1232 0
1200 68 -1232 0
1200 -68 1232 0
-1200 68 1232 0
-1201 -69 -1233 0
1201 69 -1233 0
1201 -69 1233 0
-1201 69 1233 0
-1202 -70 -1234 0
1202 70 -1234 0
1202 -70 1234 0
-1202 70 1234 0
-1203 -71 -1235 0
1203 71 -1235 0
1203 -71 1235 0
-1203 71 1235 0
-1204 -72 -1236 0
1204 72 -1236 0
1204 -72 1236 0
-1204 72 1236 0
-981 -1205 -1237 0
981 1205 -1237 0
981 -1205 1237 0
-981 1205 1237 0
-982 -1206 -1238 0
982 1206 -1238 0
982 -1206 1238 0
-982 1206 1238 0
-983 -1207 -1239 0
983 1207 -1239 0
983 -1207 1239 0
-983 1207 1239 0
-984 -1208 -1240 0
984 1208 -1240 0
984 -1208 1240 0
-984 1208 1240 0
-985 -1209 -1241 0
985 1209 -1241 0
985 -1209 1241 0
-985 1209 1241 0
-986 -1210 -1242 0
986 1210 -1242 0
986 -1210 1242 0
-986 1210 1242 0
-987 -1211 -1243 0
987 1211 -1243 0
987 -1211 1243 0
-987 1211 1243 0
-988 -1212 -1244 0
988 1212 -1244 0
988 -1212 1244 0
-988 1212 1244 0
-989 -1213 -1245 0
989 1213 -1245 0
989 -1213 1245 0
-989 1213 1245 0
-990 -1214 -1246 0
990 1214 -1246 0
990 -1214 1246 0
-990 1214 1246 0
-991 -1215 -1247 0
991 1215 -1247 0
991 -1215 1247 0
-991 1215 1247 0
-992 -1216 -1248 0
992 1216 -1248 0
992 -1216 1248 0
-992 1216 1248 0
-993 -1217 -1249 0
993 1217 -1249 0
993 -1217 1249 0
-993 1217 1249 0
-994 -1218 -1250 0
994 1218 -1250 0
994 -1218 1250 0
-994 1218 1250 0
-995 -1219 -1251 0
995 1219 -1251 0
995 -1219 1251 0
-995 1219 1251 0
-996 -1220 -1252 0
996 1220 -1252 0
996 -1220 1252 0
-996 1220 1252 0
-997 -1221 -1253 0
997 1221 -1253 0
997 -1221 1253 0
-997 1221 1253 0
-998 -1222 -1254 0
998 1222 -1254 0
998 -1222 1254 0
-998 1222 1254 0
-999 -1223 -1255 0
999 1223 -1255 0
999 -1223 1255 0
-999 1223 1255 0
-1000 -1224 -1256 0
1000 1224 -1256 0
1000 -1224 1256 0
-1000 1224 1256 0
-1001 -1225 -1257 0
1001 1225 -1257 0
1001 -1225 1257 0
-1001 1225 1257 0
-1002 -1226 -1258 0
1002 1226 -1258 0
1002 -1226 1258 0
-1002 1226 1258 0
-1003 -1227 -1259 0
1003 1227 -1259 0
1003 -1227 1259 0
-1003 1227 1259 0
-1004 -1228 -1260 0
1004 1228 -1260 0
1004 -1228 1260 0
-1004 1228 1260 0
-1005 -1229 -1261 0
1005 1229 -1261 0
1005 -1229 1261 0
-1005 1229 1261 0
-1006 -1230 -1262 0
1006 1230 -1262 0
1006 -1230 1262 0
-1006 1230 1262 0
-1007 -1231 -1263 0
1007 1231 -1263 0
1007 -1231 1263 0
-1007 1231 1263 0
-1008 -1232 -1264 0
1008 1232 -1264 0
1008 -1232 1264 0
-1008 1232 1264 0
-1009 -1233 -1265 0
1009 1233 -1265 0
1009 -1233 1265 0
-1009 1233 1265 0
-1010 -1234 -1266 0
1010 1234 -1266 0
1010 -1234 1266 0
-1010 1234 1266 0
-1011 -1235 -1267 0
1011 1235 -1267 0
1011 -1235 1267 0
-1011 1235 1267 0
-1012 -1236 -1268 0
1012 1236 -1268 0
1012 -1236 1268 0
-1012 1236 1268 0
-1269 1237 0
-1269 90 0
-1237 -90 1269 0
-1270 1238 0
-1270 91 0
-1238 -91 1270 0
-1271 1239 0
-1271 92 0
-1239 -92 1271 0
-1272 1240 0
-1272 93 0
-1240 -93 1272 0
-1273 1241 0
-1273 94 0
-1241 -94 1273 0
-1274 1242 0
-1274 95 0
-1242 -95 1274 0
-1275 1243 0
-1275 96 0
-1243 -96 1275 0
-1276 1244 0
-1276 97 0
-1244 -97 1276 0
-1277 1245 0
-1277 98 0
-1245 -98 1277 0
-1278 1246 0
-1278 99 0
-1246 -99 1278 0
-1279 1247 0
-1279 100 0
-1247 -100 1279 0
-1280 1248 0
-1280 101 0
-1248 -101 1280 0
-1281 1249 0
-1281 102 0
-1249 -102 1281 0
-1282 1250 0
-1282 103 0
-1250 -103 1282 0
-1283 1251 0
-1283 104 0
-1251 -104 1283 0
-1284 1252 0
-1284 105 0
-1252 -105 1284 0
-1285 1253 0
-1285 106 0
-1253 -106 1285 0
-1286 1254 0
-1286 107 0
-1254 -107 1286 0
-1287 1255 0
-1287 108 0
-1255 -108 1287 0
-1288 1256 0
-1288 109 0
-1256 -109 1288 0
-1289 1257 0
-1289 110 0
-1257 -110 1289 0
-1290 1258 0
-1290 111 0
-1258 -111 1290 0
-1291 1259 0
-1291 112 0
-1259 -112 1291 0
-1292 1260 0
-1292 113 0
-1260 -113 1292 0
-1293 1261 0
-1293 114 0
-1261 -114 1293 0
-1294 1262 0
-1294 115 0
-1262 -115 1294 0
-1295 1263 0
-1295 116 0
-1263 -116 1295 0
-1296 1264 0
-1296 65 0
-1264 -65 1296 0
-1297 1265 0
-1297 66 0
-1265 -66 1297 0
-1298 1266 0
-1298 67 0
-1266 -67 1298 0
-1299 1267 0
-1299 68 0
-1267 -68 1299 0
-1300 1268 0
-1300 69 0
-1268 -69 1300 0
-1269 -1266 -1301 0
1269 1266 -1301 0
1269 -1266 1301 0
-1269 1266 1301 0
-1270 -1267 -1302 0
1270 1267 -1302 0
1270 -1267 1302 0
-1270 1267 1302 0
-1271 -1268 -1303 0
1271 1268 -1303 0
1271 -1268 1303 0
-1271 1268 1303 0
-1272 -1237 -1304 0
1272 1237 -1304 0
1272 -1237 1304 0
-1272 1237 1304 0
-1273 -1238 -1305 0
1273 1238 -1305 0
1273 -1238 1305 0
-1273 1238 1305 0
-1274 -1239 -1306 0
1274 1239 -1306 0
1274 -1239 1306 0
-1274 1239 1306 0
-1275 -1240 -1307 0
1275 1240 -1307 0
1275 -1240 1307 0
-1275 1240 1307 0
-1276 -1241 -1308 0
1276 1241 -1308 0
1276 -1241 1308 0
-1276 1241 1308 0
-1277 -1242 -1309 0
1277 1242 -1309 0
1277 -1242 1309 0
-1277 1242 1309 0
-1278 -1243 -1310 0
1278 1243 -1310 0
1278 -1243 1310 0
-1278 1243 1310 0
-1279 -1244 -1311 0
1279 1244 -1311 0
1279 -1244 1311 0
-1279 1244 1311 0
-1280 -1245 -1312 0
1280 1245 -1312 0
1280 -1245 1312 0
-1280 1245 1312 0
-1281 -1246 -1313 0
1281 1246 -1313 0
1281 -1246 1313 0
-1281 1246 1313 0
-1282 -1247 -1314 0
1282 1247 -1314 0
1282 -1247 1314 0
-1282 1247 1314 0
-1283 -1248 -1315 0
1283 1248 -1315 0
1283 -1248 1315 0
-1283 1248 1315 0
-1284 -1249 -1316 0
1284 1249 -1316 0
1284 -1249 1316 0
-1284 1249 1316 0
-1285 -1250 -1317 0
1285 1250 -1317 0
1285 -1250 1317 0
-1285 1250 1317 0
-1286 -1251 -1318 0
1286 1251 -1318 0
1286 -1251 1318 0
-1286 1251 1318 0
-1287 -1252 -1319 0
1287 1252 -1319 0
1287 -1252 1319 0
-1287 1252 1319 0
-1288 -1253 -1320 0
1288 1253 -1320 0
1288 -1253 1320 0
-1288 1253 1320 0
-1289 -1254 -1321 0
1289 1254 -1321 0
1289 -1254 1321 0
-1289 1254 1321 0
-1290 -1255 -1322 0
1290 1255 -1322 0
1290 -1255 1322 0
-1290 1255 1322 0
-1291 -1256 -1323 0
1291 1256 -1323 0
1291 -1256 1323 0
-1291 1256 1323 0
-1292 -1257 -1324 0
1292 1257 -1324 0
1292 -1257 1324 0
-1292 1257 1324 0
-1293 -1258 -1325 0
1293 1258 -1325 0
1293 -1258 1325 0
-1293 1258 1325 0
-1294 -1259 -1326 0
1294 1259 -1326 0
1294 -1259 1326 0
-1294 1259 1326 0
-1295 -1260 -1327 0
1295 1260 -1327 0
1295 -1260 1327 0
-1295 1260 1327 0
-1296 -1261 -1328 0
1296 1261 -1328 0
1296 -1261 1328 0
-1296 1261 1328 0
-1297 -1262 -1329 0
1297 1262 -1329 0
1297 -1262 1329 0
-1297 1262 1329 0
-1298 -1263 -1330 0
1298 1263 -1330 0
1298 -1263 1330 0
-1298 1263 1330 0
-1299 -1264 -1331 0
1299 1264 -1331 0
1299 -1264 1331 0
-1299 1264 1331 0
-1300 -1265 -1332 0
1300 1265 -1332 0
1300 -1265 1332 0
-1300 1265 1332 0
-1301 -90 -1333 0
1301 90 -1333 0
1301 -90 1333 0
-1301 90 1333 0
-1302 -91 -1334 0
1302 91 -1334 0
1302 -91 1334 0
-1302 91 1334 0
-1303 -92 -1335 0
1303 92 -1335 0
1303 -92 1335 0
-1303 92 1335 0
-1304 -93 -1336 0
1304 93 -1336 0
1304 -93 1336 0
-1304 93 1336 0
-1305 -94 -1337 0
1305 94 -1337 0
1305 -94 1337 0
-1305 94 1337 0
-1306 -95 -1338 0
1306 95 -1338 0
1306 -95 1338 0
-1306 95 1338 0
-1307 -96 -1339 0
1307 96 -1339 0
1307 -96 1339 0
-1307 96 1339 0
-1308 -97 -1340 0
1308 97 -1340 0
1308 -97 1340 0
-1308 97 1340 0
-1309 -98 -1341 0
1309 98 -1341 0
1309 -98 1341 0
-1309 98 1341 0
-1310 -99 -1342 0
1310 99 -1342 0
1310 -99 1342 0
-1310 99 1342 0
-1311 -100 -1343 0
1311 100 -1343 0
1311 -100 1343 0
-1311 100 1343 0
-1312 -101 -1344 0
1312 101 -1344 0
1312 -101 1344 0
-1312 101 1344 0
-1313 -102 -1345 0
1313 102 -1345 0
1313 -102 1345 0
-1313 102 1345 0
-1314 -103 -1346 0
1314 103 -1346 0
1314 -103 1346 0
-1314 103 1346 0
-1315 -104 -1347 0
1315 104 -1347 0
1315 -104 1347 0
-1315 104 1347 0
-1316 -105 -1348 0
1316 105 -1348 0
1316 -105 1348 0
-1316 105 1348 0
-1317 -106 -1349 0
1317 106 -1349 0
1317 -106 1349 0
-1317 106 1349 0
-1318 -107 -1350 0
1318 107 -1350 0
1318 -107 1350 0
-1318 107 1350 0
-1319 -108 -1351 0
1319 108 -1351 0
1319 -108 1351 0
-1319 108 1351 0
-1320 -109 -1352 0
1320 109 -1352 0
1320 -109 1352 0
-1320 109 1352 0
-1321 -110 -1353 0
1321 110 -1353 0
1321 -110 1353 0
-1321 110 1353 0
-1322 -111 -1354 0
1322 111 -1354 0
1322 -111 1354 0
-1322 111 1354 0
-1323 -112 -1355 0
1323 112 -1355 0
1323 -112 1355 0
-1323 112 1355 0
-1324 -113 -1356 0
1324 113 -1356 0
1324 -113 1356 0
-1324 113 1356 0
-1325 -114 -1357 0
1325 114 -1357 0
1325 -114 1357 0
-1325 114 1357 0
-1326 -115 -1358 0
1326 115 -1358 0
1326 -115 1358 0
-1326 115 1358 0
-1327 -116 -1359 0
1327 116 -1359 0
1327 -116 1359 0
-1327 116 1359 0
-1328 -65 -1360 0
1328 65 -1360 0
1328 -65 1360 0
-1328 65 1360 0
-1329 -66 -1361 0
1329 66 -1361 0
1329 -66 1361 0
-1329 66 1361 0
-1330 -67 -1362 0
1330 67 -1362 0
1330 -67 1362 0
-1330 67 1362 0
-1331 -68 -1363 0
1331 68 -1363 0
1331 -68 1363 0
-1331 68 1363 0
-1332 -69 -1364 0
1332 69 -1364 0
1332 -69 1364 0
-1332 69 1364 0
-1109 -1333 -1365 0
1109 1333 -1365 0
1109 -1333 1365 0
-1109 1333 1365 0
-1110 -1334 -1366 0
1110 1334 -1366 0
1110 -1334 1366 0
-1110 1334 1366 0
-1111 -1335 -1367 0
1111 1335 -1367 0
1111 -1335 1367 0
-1111 1335 1367 0
-1112 -1336 -1368 0
1112 1336 -1368 0
1112 -1336 1368 0
-1112 1336 1368 0
-1113 -1337 -1369 0
1113 1337 -1369 0
1113 -1337 1369 0
-1113 1337 1369 0
-1114 -1338 -1370 0
1114 1338 -1370 0
1114 -1338 1370 0
-1114 1338 1370 0
-1115 -1339 -1371 0
1115 1339 -1371 0
1115 -1339 1371 0
-1115 1339 1371 0
-1116 -1340 -1372 0
1116 1340 -1372 0
1116 -1340 1372 0
-1116 1340 1372 0
-1117 -1341 -1373 0
1117 1341 -1373 0
1117 -1341 1373 0
-1117 1341 1373 0
-1118 -1342 -1374 0
1118 1342 -1374 0
1118 -1342 1374 0
-1118 1342 1374 0
-1119 -1343 -1375 0
1119 1343 -1375 0
1119 -1343 1375 0
-1119 1343 1375 0
-1120 -1344 -1376 0
1120 1344 -1376 0
1120 -1344 1376 0
-1120 1344 1376 0
-1121 -1345 -1377 0
1121 1345 -1377 0
1121 -1345 1377 0
-1121 1345 1377 0
-1122 -1346 -1378 0
1122 1346 -1378 0
1122 -1346 1378 0
-1122 1346 1378 0
-1123 -1347 -1379 0
1123 1347 -1379 0
1123 -1347 1379 0
-1123 1347 1379 0
-1124 -1348 -1380 0
1124 1348 -1380 0
1124 -1348 1380 0
-1124 1348 1380 0
-1125 -1349 -1381 0
1125 1349 -1381 0
1125 -1349 1381 0
-1125 1349 1381 0
-1126 -1350 -1382 0
1126 1350 -1382 0
1126 -1350 1382 0
-1126 1350 1382 0
-1127 -1351 -1383 0
1127 1351 -1383 0
1127 -1351 1383 0
-1127 1351 1383 0
-1128 -1352 -1384 0
1128 1352 -1384 0
1128 -1352 1384 0
-1128 1352 1384 0
-1129 -1353 -1385 0
1129 1353 -1385 0
1129 -1353 1385 0
-1129 1353 1385 0
-1130 -1354 -1386 0
1130 1354 -1386 0
1130 -1354 1386 0
-1130 1354 1386 0
-1131 -1355 -1387 0
1131 1355 -1387 0
1131 -1355 1387 0
-1131 1355 1387 0
-1132 -1356 -1388 0
1132 1356 -1388 0
1132 -1356 1388 0
-1132 1356 1388 0
-1133 -1357 -1389 0
1133 1357 -1389 0
1133 -1357 1389 0
-1133 1357 1389 0
-1134 -1358 -1390 0
1134 1358 -1390 0
1134 -1358 1390 0
-1134 1358 1390 0
-1135 -1359 -1391 0
1135 1359 -1391 0
1135 -1359 1391 0
-1135 1359 1391 0
-1136 -1360 -1392 0
1136 1360 -1392 0
1136 -1360 1392 0
-1136 1360 1392 0
-1137 -1361 -1393 0
1137 1361 -1393 0
1137 -1361 1393 0
-1137 1361 1393 0
-1138 -1362 -1394 0
1138 1362 -1394 0
1138 -1362 1394 0
-1138 1362 1394 0
-1139 -1363 -1395 0
1139 1363 -1395 0
1139 -1363 1395 0
-1139 1363 1395 0
-1140 -1364 -1396 0
1140 1364 -1396 0
1140 -1364 1396 0
-1140 1364 1396 0
-1397 1365 0
-1397 87 0
-1365 -87 1397 0
-1398 1366 0
-1398 88 0
-1366 -88 1398 0
-1399 1367 0
-1399 89 0
-1367 -89 1399 0
-1400 1368 0
-1400 90 0
-1368 -90 1400 0
-1401 1369 0
-1401 91 0
-1369 -91 1401 0
-1402 1370 0
-1402 92 0
-1370 -92 1402 0
-1403 1371 0
-1403 93 0
-1371 -93 1403 0
-1404 1372 0
-1404 94 0
-1372 -94 1404 0
-1405 1373 0
-1405 95 0
-1373 -95 1405 0
-1406 1374 0
-1406 96 0
-1374 -96 1406 0
-1407 1375 0
-1407 97 0
-1375 -97 1407 0
-1408 1376 0
-1408 98 0
-1376 -98 1408 0
-1409 1377 0
-1409 99 0
-1377 -99 1409 0
-1410 1378 0
-1410 100 0
-1378 -100 1410 0
-1411 1379 0
-1411 101 0
-1379 -101 1411 0
-1412 1380 0
-1412 102 0
-1380 -102 1412 0
-1413 1381 0
-1413 103 0
-1381 -103 1413 0
-1414 1382 0
-1414 104 0
-1382 -104 1414 0
-1415 1383 0
-1415 105 0
-1383 -105 1415 0
-1416 1384 0
-1416 106 0
-1384 -106 1416 0
-1417 1385 0
-1417 107 0
-1385 -107 1417 0
-1418 1386 0
-1418 108 0
-1386 -108 1418 0
-1419 1387 0
-1419 109 0
-1387 -109 1419 0
-1420 1388 0
-1420 110 0
-1388 -110 1420 0
-1421 1389 0
-1421 111 0
-1389 -111 1421 0
-1422 1390 0
-1422 112 0
-1390 -112 1422 0
-1423 1391 0
-1423 113 0
-1391 -113 1423 0
-1424 1392 0
-1424 114 0
-1392 -114 1424 0
-1425 1393 0
-1425 115 0
-1393 -115 1425 0
-1426 1394 0
-1426 116 0
-1394 -116 1426 0
-1427 1395 0
-1427 65 0
-1395 -65 1427 0
-1428 1396 0
-1428 66 0
-1396 -66 1428 0
-1397 -1394 -1429 0
1397 1394 -1429 0
1397 -1394 1429 0
-1397 1394 1429 0
-1398 -1395 -1430 0
1398 1395 -1430 0
1398 -1395 1430 0
-1398 1395 1430 0
-1399 -1396 -1431 0
1399 1396 -1431 0
1399 -1396 1431 0
-1399 1396 1431 0
-1400 -1365 -1432 0
1400 1365 -1432 0
1400 -1365 1432 0
-1400 1365 1432 0
-1401 -1366 -1433 0
1401 1366 -1433 0
1401 -1366 1433 0
-1401 1366 1433 0
-1402 -1367 -1434 0
1402 1367 -1434 0
1402 -1367 1434 0
-1402 1367 1434 0
-1403 -1368 -1435 0
1403 1368 -1435 0
1403 -1368 1435 0
-1403 1368 1435 0
-1404 -1369 -1436 0
1404 1369 -1436 0
1404 -1369 1436 0
-1404 1369 1436 0
-1405 -1370 -1437 0
1405 1370 -1437 0
1405 -1370 1437 0
-1405 1370 1437 0
-1406 -1371 -1438 0
1406 1371 -1438 0
1406 -1371 1438 0
-1406 1371 1438 0
-1407 -1372 -1439 0
1407 1372 -1439 0
1407 -1372 1439 0
-1407 1372 1439 0
-1408 -1373 -1440 0
1408 1373 -1440 0
1408 -1373 1440 0
-1408 1373 1440 0
-1409 -1374 -1441 0
1409 1374 -1441 0
1409 -1374 1441 0
-1409 1374 1441 0
-1410 -1375 -1442 0
1410 1375 -1442 0
1410 -1375 1442 0
-1410 1375 1442 0
-1411 -1376 -1443 0
1411 1376 -1443 0
1411 -1376 1443 0
-1411 1376 1443 0
-1412 -1377 -1444 0
1412 1377 -1444 0
1412 -1377 1444 0
-1412 1377 1444 0
-1413 -1378 -1445 0
1413 1378 -1445 0
1413 -1378 1445 0
-1413 1378 1445 0
-1414 -1379 -1446 0
1414 1379 -1446 0
1414 -1379 1446 0
-1414 1379 1446 0
-1415 -1380 -1447 0
1415 1380 -1447 0
1415 -1380 1447 0
-1415 1380 1447 0
-1416 -1381 -1448 0
1416 1381 -1448 0
1416 -1381 1448 0
-1416 1381 1448 0
-1417 -1382 -1449 0
1417 1382 -1449 0
1417 -1382 1449 0
-1417 1382 1449 0
-1418 -1383 -1450 0
1418 1383 -1450 0
1418 -1383 1450 0
-1418 1383 1450 0
-1419 -1384 -1451 0
1419 1384 -1451 0
1419 -1384 1451 0
-1419 1384 1451 0
-1420 -1385 -1452 0
1420 1385 -1452 0
1420 -1385 1452 0
-1420 1385 1452 0
-1421 -1386 -1453 0
1421 1386 -1453 0
1421 -1386 1453 0
-1421 1386 1453 0
-1422 -1387 -1454 0
1422 1387 -1454 0
1422 -1387 1454 0
-1422 1387 1454 0
-1423 -1388 -1455 0
1423 1388 -1455 0
1423 -1388 1455 0
-1423 1388 1455 0
-1424 -1389 -1456 0
1424 1389 -1456 0
1424 -1389 1456 0
-1424 1389 1456 0
-1425 -1390 -1457 0
1425 1390 -1457 0
1425 -1390 1457 0
-1425 1390 1457 0
-1426 -1391 -1458 0
1426 1391 -1458 0
1426 -1391 1458 0
-1426 1391 1458 0
-1427 -1392 -1459 0
1427 1392 -1459 0
1427 -1392 1459 0
-1427 1392 1459 0
-1428 -1393 -1460 0
1428 1393 -1460 0
1428 -1393 1460 0
-1428 1393 1460 0
-1429 -87 -1461 0
1429 87 -1461 0
1429 -87 1461 0
-1429 87 1461 0
-1430 -88 -1462 0
1430 88 -1462 0
1430 -88 1462 0
-1430 88 1462 0
-1431 -89 -1463 0
1431 89 -1463 0
1431 -89 1463 0
-1431 89 1463 0
-1432 -90 -1464 0
1432 90 -1464 0
1432 -90 1464 0
-1432 90 1464 0
-1433 -91 -1465 0
1433 91 -1465 0
1433 -91 1465 0
-1433 91 1465 0
-1434 -92 -1466 0
1434 92 -1466 0
1434 -92 1466 0
-1434 92 1466 0
-1435 -93 -1467 0
1435 93 -1467 0
1435 -93 1467 0
-1435 93 1467 0
-1436 -94 -1468 0
1436 94 -1468 0
1436 -94 1468 0
-1436 94 1468 0
-1437 -95 -1469 0
1437 95 -1469 0
1437 -95 1469 0
-1437 95 1469 0
-1438 -96 -1470 0
1438 96 -1470 0
1438 -96 1470 0
-1438 96 1470 0
-1439 -97 -1471 0
1439 97 -1471 0
1439 -97 1471 0
-1439 97 1471 0
-1440 -98 -1472 0
1440 98 -1472 0
1440 -98 1472 0
-1440 98 1472 0
-1441 -99 -1473 0
1441 99 -1473 0
1441 -99 1473 0
-1441 99 1473 0
-1442 -100 -1474 0
1442 100 -1474 0
1442 -100 1474 0
-1442 100 1474 0
-1443 -101 -1475 0
1443 101 -1475 0
1443 -101 1475 0
-1443 101 1475 0
-1444 -102 -1476 0
1444 102 -1476 0
1444 -102 1476 0
-1444 102 1476 0
-1445 -103 -1477 0
1445 103 -1477 0
1445 -103 1477 0
-1445 103 1477 0
-1446 -104 -1478 0
1446 104 -1478 0
1446 -104 1478 0
-1446 104 1478 0
-1447 -105 -1479 0
1447 105 -1479 0
1447 -105 1479 0
-1447 105 1479 0
-1448 -106 -1480 0
1448 106 -1480 0
1448 -106 1480 0
-1448 106 1480 0
-1449 -107 -1481 0
1449 107 -1481 0
1449 -107 1481 0
-1449 107 1481 0
-1450 -108 -1482 0
1450 108 -1482 0
1450 -108 1482 0
-1450 108 1482 0
-1451 -109 -1483 0
1451 109 -1483 0
1451 -109 1483 0
-1451 109 1483 0
-1452 -110 -1484 0
1452 110 -1484 0
1452 -110 1484 0
-1452 110 1484 0
-1453 -111 -1485 0
1453 111 -1485 0
1453 -111 1485 0
-1453 111 1485 0
-1454 -112 -1486 0
1454 112 -1486 0
1454 -112 1486 0
-1454 112 1486 0
-1455 -113 -1487 0
1455 113 -1487 0
1455 -113 1487 0
-1455 113 1487 0
-1456 -114 -1488 0
1456 114 -1488 0
1456 -114 1488 0
-1456 114 1488 0
-1457 -115 -1489 0
1457 115 -1489 0
1457 -115 1489 0
-1457 115 1489 0
-1458 -116 -1490 0
1458 116 -1490 0
1458 -116 1490 0
-1458 116 1490 0
-1459 -65 -1491 0
1459 65 -1491 0
1459 -65 1491 0
-1459 65 1491 0
-1460 -66 -1492 0
1460 66 -1492 0
1460 -66 1492 0
-1460 66 1492 0
-1237 -1461 -1493 0
1237 1461 -1493 0
1237 -1461 1493 0
-1237 1461 1493 0
-1238 -1462 -1494 0
1238 1462 -1494 0
1238 -1462 1494 0
-1238 1462 1494 0
-1239 -1463 -1495 0
1239 1463 -1495 0
1239 -1463 1495 0
-1239 1463 1495 0
-1240 -1464 -1496 0
1240 1464 -1496 0
1240 -1464 1496 0
-1240 1464 1496 0
-1241 -1465 -1497 0
1241 1465 -1497 0
1241 -1465 1497 0
-1241 1465 1497 0
-1242 -1466 -1498 0
1242 1466 -1498 0
1242 -1466 1498 0
-1242 1466 1498 0
-1243 -1467 -1499 0
1243 1467 -1499 0
1243 -1467 1499 0
-1243 1467 1499 0
-1244 -1468 -1500 0
1244 1468 -1500 0
1244 -1468 1500 0
-1244 1468 1500 0
-1245 -1469 -1501 0
1245 1469 -1501 0
1245 -1469 1501 0
-1245 1469 1501 0
-1246 -1470 -1502 0
1246 1470 -1502 0
1246 -1470 1502 0
-1246 1470 1502 0
-1247 -1471 -1503 0
1247 1471 -1503 0
1247 -1471 1503 0
-1247 1471 1503 0
-1248 -1472 -1504 0
1248 1472 -1504 0
1248 -1472 1504 0
-1248 1472 1504 0
-1249 -1473 -1505 0
1249 1473 -1505 0
1249 -1473 1505 0
-1249 1473 1505 0
-1250 -1474 -1506 0
1250 1474 -1506 0
1250 -1474 1506 0
-1250 1474 1506 0
-1251 -1475 -1507 0
1251 1475 -1507 0
1251 -1475 1507 0
-1251 1475 1507 0
-1252 -1476 -1508 0
1252 1476 -1508 0
1252 -1476 1508 0
-1252 1476 1508 0
-1253 -1477 -1509 0
1253 1477 -1509 0
1253 -1477 1509 0
-1253 1477 1509 0
-1254 -1478 -1510 0
1254 1478 -1510 0
1254 -1478 1510 0
-1254 1478 1510 0
-1255 -1479 -1511 0
1255 1479 -1511 0
1255 -1479 1511 0
-1255 1479 1511 0
-1256 -1480 -1512 0
1256 1480 -1512 0
1256 -1480 1512 0
-1256 1480 1512 0
-1257 -1481 -1513 0
1257 1481 -1513 0
1257 -1481 1513 0
-1257 1481 1513 0
-1258 -1482 -1514 0
1258 1482 -1514 0
1258 -1482 1514 0
-1258 1482 1514 0
-1259 -1483 -1515 0
1259 1483 -1515 0
1259 -1483 1515 0
-1259 1483 1515 0
-1260 -1484 -1516 0
1260 1484 -1516 0
1260 -1484 1516 0
-1260 1484 1516 0
-1261 -1485 -1517 0
1261 1485 -1517 0
1261 -1485 1517 0
-1261 1485 1517 0
-1262 -1486 -1518 0
1262 1486 -1518 0
1262 -1486 1518 0
-1262 1486 1518 0
-1263 -1487 -1519 0
1263 1487 -1519 0
1263 -1487 1519 0
-1263 1487 1519 0
-1264 -1488 -1520 0
1264 1488 -1520 0
1264 -1488 1520 0
-1264 1488 1520 0
-1265 -1489 -1521 0
1265 1489 -1521 0
1265 -1489 1521 0
-1265 1489 1521 0
-1266 -1490 -1522 0
1266 1490 -1522 0
1266 -1490 1522 0
-1266 1490 1522 0
-1267 -1491 -1523 0
1267 1491 -1523 0
1267 -1491 1523 0
-1267 1491 1523 0
-1268 -1492 -1524 0
1268 1492 -1524 0
1268 -1492 1524 0
-1268 1492 1524 0
-1525 1493 0
-1525 84 0
-1493 -84 1525 0
-1526 1494 0
-1526 85 0
-1494 -85 1526 0
-1527 1495 0
-1527 86 0
-1495 -86 1527 0
-1528 1496 0
-1528 87 0
-1496 -87 1528 0
-1529 1497 0
-1529 88 0
-1497 -88 1529 0
-1530 1498 0
-1530 89 0
-1498 -89 1530 0
-1531 1499 0
-1531 90 0
-1499 -90 1531 0
-1532 1500 0
-1532 91 0
-1500 -91 1532 0
-1533 1501 0
-1533 92 0
-1501 -92 1533 0
-1534 1502 0
-1534 93 0
-1502 -93 1534 0
-1535 1503 0
-1535 94 0
-1503 -94 1535 0
-1536 1504 0
-1536 95 0
-1504 -95 1536 0
-1537 1505 0
-1537 96 0
-1505 -96 1537 0
-1538 1506 0
-1538 97 0
-1506 -97 1538 0
-1539 1507 0
-1539 98 0
-1507 -98 1539 0
-1540 1508 0
-1540 99 0
-1508 -99 1540 0
-1541 1509 0
-1541 100 0
-1509 -100 1541 0
-1542 1510 0
-1542 101 0
-1510 -101 1542 0
-1543 1511 0
-1543 102 0
-1511 -102 1543 0
-1544 1512 0
-1544 103 0
-1512 -103 1544 0
-1545 1513 0
-1545 104 0
-1513 -104 1545 0
-1546 1514 0
-1546 105 0
-1514 -105 1546 0
-1547 1515 0
-1547 106 0
-1515 -106 1547 0
-1548 1516 0
-1548 107 0
-1516 -107 1548 0
-1549 1517 0
-1549 108 0
-1517 -108 1549 0
-1550 1518 0
-1550 109 0
-1518 -109 1550 0
-1551 1519 0
-1551 110 0
-1519 -110 1551 0
-1552 1520 0
-1552 111 0
-1520 -111 1552 0
-1553 1521 0
-1553 112 0
-1521 -112 1553 0
-1554 1522 0
-1554 113 0
-1522 -113 1554 0
-1555 1523 0
-1555 114 0
-1523 -114 1555 0
-1556 1524 0
-1556 115 0
-1524 -115 1556 0
-1525 -1522 -1557 0
1525 1522 -1557 0
1525 -1522 1557 0
-1525 1522 1557 0
-1526 -1523 -1558 0
1526 1523 -1558 0
1526 -1523 1558 0
-1526 1523 1558 0
-1527 -1524 -1559 0
1527 1524 -1559 0
1527 -1524 1559 0
-1527 1524 1559 0
-1528 -1493 -1560 0
1528 1493 -1560 0
1528 -1493 1560 0
-1528 1493 1560 0
-1529 -1494 -1561 0
1529 1494 -1561 0
1529 -1494 1561 0
-1529 1494 1561 0
-1530 -1495 -1562 0
1530 1495 -1562 0
1530 -1495 1562 0
-1530 1495 1562 0
-1531 -1496 -1563 0
1531 1496 -1563 0
1531 -1496 1563 0
-1531 1496 1563 0
-1532 -1497 -1564 0
1532 1497 -1564 0
1532 -1497 1564 0
-1532 1497 1564 0
-1533 -1498 -1565 0
1533 1498 -1565 0
1533 -1498 1565 0
-1533 1498 1565 0
-1534 -1499 -1566 0
1534 1499 -1566 0
1534 -1499 1566 0
-1534 1499 1566 0
-1535 -1500 -1567 0
1535 1500 -1567 0
1535 -1500 1567 0
-1535 1500 1567 0
-1536 -1501 -1568 0
1536 1501 -1568 0
1536 -1501 1568 0
-1536 1501 1568 0
-1537 -1502 -1569 0
1537 1502 -1569 0
1537 -1502 1569 0
-1537 1502 1569 0
-1538 -1503 -1570 0
1538 1503 -1570 0
1538 -1503 1570 0
-1538 1503 1570 0
-1539 -1504 -1571 0
1539 1504 -1571 0
1539 -1504 1571 0
-1539 1504 1571 0
-1540 -1505 -1572 0
1540 1505 -1572 0
1540 -1505 1572 0
-1540 1505 1572 0
-1541 -1506 -1573 0
1541 1506 -1573 0
1541 -1506 1573 0
-1541 1506 1573 0
-1542 -1507 -1574 0
1542 1507 -1574 0
1542 -1507 1574 0
-1542 1507 1574 0
-1543 -1508 -1575 0
1543 1508 -1575 0
1543 -1508 1575 0
-1543 1508 1575 0
-1544 -1509 -1576 0
1544 1509 -1576 0
1544 -1509 1576 0
-1544 1509 1576 0
-1545 -1510 -1577 0
1545 1510 -1577 0
1545 -1510 1577 0
-1545 1510 1577 0
-1546 -1511 -1578 0
1546 1511 -1578 0
1546 -1511 1578 0
-1546 1511 1578 0
-1547 -1512 -1579 0
1547 1512 -1579 0
1547 -1512 1579 0
-1547 1512 1579 0
-1548 -1513 -1580 0
1548 1513 -1580 0
1548 -1513 1580 0
-1548 1513 1580 0
-1549 -1514 -1581 0
1549 1514 -1581 0
1549 -1514 1581 0
-1549 1514 1581 0
-1550 -1515 -1582 0
1550 1515 -1582 0
1550 -1515 1582 0
-1550 1515 1582 0
-1551 -1516 -1583 0
1551 1516 -1583 0
1551 -1516 1583 0
-1551 1516 1583 0
-1552 -1517 -1584 0
1552 1517 -1584 0
1552 -1517 1584 0
-1552 1517 1584 0
-1553 -1518 -1585 0
1553 1518 -1585 0
1553 -1518 1585 0
-1553 1518 1585 0
-1554 -1519 -1586 0
1554 1519 -1586 0
1554 -1519 1586 0
-1554 1519 1586 0
-1555 -1520 -1587 0
1555 1520 -1587 0
1555 -1520 1587 0
-1555 1520 1587 0
-1556 -1521 -1588 0
1556 1521 -1588 0
1556 -1521 1588 0
-1556 1521 1588 0
-1557 -84 -1589 0
1557 84 -1589 0
1557 -84 1589 0
-1557 84 1589 0
-1558 -85 -1590 0
1558 85 -1590 0
1558 -85 1590 0
-1558 85 1590 0
-1559 -86 -1591 0
1559 86 -1591 0
1559 -86 1591 0
-1559 86 1591 0
-1560 -87 -1592 0
1560 87 -1592 0
1560 -87 1592 0
-1560 87 1592 0
-1561 -88 -1593 0
1561 88 -1593 0
1561 -88 1593 0
-1561 88 1593 0
-1562 -89 -1594 0
1562 89 -1594 0
1562 -89 1594 0
-1562 89 1594 0
-1563 -90 -1595 0
1563 90 -1595 0
1563 -90 1595 0
-1563 90 1595 0
-1564 -91 -1596 0
1564 91 -1596 0
1564 -91 1596 0
-1564 91 1596 0
-1565 -92 -1597 0
1565 92 -1597 0
1565 -92 1597 0
-1565 92 1597 0
-1566 -93 -1598 0
1566 93 -1598 0
1566 -93 1598 0
-1566 93 1598 0
-1567 -94 -1599 0
1567 94 -1599 0
1567 -94 1599 0
-1567 94 1599 0
-1568 -95 -1600 0
1568 95 -1600 0
1568 -95 1600 0
-1568 95 1600 0
-1569 -96 -1601 0
1569 96 -1601 0
1569 -96 1601 0
-1569 96 1601 0
-1570 -97 -1602 0
1570 97 -1602 0
1570 -97 1602 0
-1570 97 1602 0
-1571 -98 -1603 0
1571 98 -1603 0
1571 -98 1603 0
-1571 98 1603 0
-1572 -99 -1604 0
1572 99 -1604 0
1572 -99 1604 0
-1572 99 1604 0
-1573 -100 -1605 0
1573 100 -1605 0
1573 -100 1605 0
-1573 100 1605 0
-1574 -101 -1606 0
1574 101 -1606 0
1574 -101 1606 0
-1574 101 1606 0
-1575 -102 -1607 0
1575 102 -1607 0
1575 -102 1607 0
-1575 102 1607 0
-1576 -103 -1608 0
1576 103 -1608 0
1576 -103 1608 0
-1576 103 1608 0
-1577 -104 -1609 0
1577 104 -1609 0
1577 -104 1609 0
-1577 104 1609 0
-1578 -105 -1610 0
1578 105 -1610 0
1578 -105 1610 0
-1578 105 1610 0
-1579 -106 -1611 0
1579 106 -1611 0
1579 -106 1611 0
-1579 106 1611 0
-1580 -107 -1612 0
1580 107 -1612 0
1580 -107 1612 0
-1580 107 1612 0
-1581 -108 -1613 0
1581 108 -1613 0
1581 -108 1613 0
-1581 108 1613 0
-1582 -109 -1614 0
1582 109 -1614 0
1582 -109 1614 0
-1582 109 1614 0
-1583 -110 -1615 0
1583 110 -1615 0
1583 -110 1615 0
-1583 110 1615 0
-1584 -111 -1616 0
1584 111 -1616 0
1584 -111 1616 0
-1584 111 1616 0
-1585 -112 -1617 0
1585 112 -1617 0
1585 -112 1617 0
-1585 112 1617 0
-1586 -113 -1618 0
1586 113 -1618 0
1586 -113 1618 0
-1586 113 1618 0
-1587 -114 -1619 0
1587 114 -1619 0
1587 -114 1619 0
-1587 114 1619 0
-1588 -115 -1620 0
1588 115 -1620 0
1588 -115 1620 0
-1588 115 1620 0
-1365 -1589 -1621 0
1365 1589 -1621 0
1365 -1589 1621 0
-1365 1589 1621 0
-1366 -1590 -1622 0
1366 1590 -1622 0
1366 -1590 1622 0
-1366 1590 1622 0
-1367 -1591 -1623 0
1367 1591 -1623 0
1367 -1591 1623 0
-1367 1591 1623 0
-1368 -1592 -1624 0
1368 1592 -1624 0
1368 -1592 1624 0
-1368 1592 1624 0
-1369 -1593 -1625 0
1369 1593 -1625 0
1369 -1593 1625 0
-1369 1593 1625 0
-1370 -1594 -1626 0
1370 1594 -1626 0
1370 -1594 1626 0
-1370 1594 1626 0
-1371 -1595 -1627 0
1371 1595 -1627 0
1371 -1595 1627 0
-1371 1595 1627 0
-1372 -1596 -1628 0
1372 1596 -1628 0
1372 -1596 1628 0
-1372 1596 1628 0
-1373 -1597 -1629 0
1373 1597 -1629 0
1373 -1597 1629 0
-1373 1597 1629 0
-1374 -1598 -1630 0
1374 1598 -1630 0
1374 -1598 1630 0
-1374 1598 1630 0
-1375 -1599 -1631 0
1375 1599 -1631 0
1375 -1599 1631 0
-1375 1599 1631 0
-1376 -1600 -1632 0
1376 1600 -1632 0
1376 -1600 1632 0
-1376 1600 1632 0
-1377 -1601 -1633 0
1377 1601 -1633 0
1377 -1601 1633 0
-1377 1601 1633 0
-1378 -1602 -1634 0
1378 1602 -1634 0
1378 -1602 1634 0
-1378 1602 1634 0
-1379 -1603 -1635 0
1379 1603 -1635 0
1379 -1603 1635 0
-1379 1603 1635 0
-1380 -1604 -1636 0
1380 1604 -1636 0
1380 -1604 1636 0
-1380 1604 1636 0
-1381 -1605 -1637 0
1381 1605 -1637 0
1381 -1605 1637 0
-1381 1605 1637 0
-1382 -1606 -1638 0
1382 1606 -1638 0
1382 -1606 1638 0
-1382 1606 1638 0
-1383 -1607 -1639 0
1383 1607 -1639 0
1383 -1607 1639 0
-1383 1607 1639 0
-1384 -1608 -1640 0
1384 1608 -1640 0
1384 -1608 1640 0
-1384 1608 1640 0
-1385 -1609 -1641 0
1385 1609 -1641 0
1385 -1609 1641 0
-1385 1609 1641 0
-1386 -1610 -1642 0
1386 1610 -1642 0
1386 -1610 1642 0
-1386 1610 1642 0
-1387 -1611 -1643 0
1387 1611 -1643 0
1387 -1611 1643 0
-1387 1611 1643 0
-1388 -1612 -1644 0
1388 1612 -1644 0
1388 -1612 1644 0
-1388 1612 1644 0
-1389 -1613 -1645 0
1389 1613 -1645 0
1389 -1613 1645 0
-1389 1613 1645 0
-1390 -1614 -1646 0
1390 1614 -1646 0
1390 -1614 1646 0
-1390 1614 1646 0
-1391 -1615 -1647 0
1391 1615 -1647 0
1391 -1615 1647 0
-1391 1615 1647 0
-1392 -1616 -1648 0
1392 1616 -1648 0
1392 -1616 1648 0
-1392 1616 1648 0
-1393 -1617 -1649 0
1393 1617 -1649 0
1393 -1617 1649 0
-1393 1617 1649 0
-1394 -1618 -1650 0
1394 1618 -1650 0
1394 -1618 1650 0
-1394 1618 1650 0
-1395 -1619 -1651 0
1395 1619 -1651 0
1395 -1619 1651 0
-1395 1619 1651 0
-1396 -1620 -1652 0
1396 1620 -1652 0
1396 -1620 1652 0
-1396 1620 1652 0
-1653 1621 0
-1653 81 0
-1621 -81 1653 0
-1654 1622 0
-1654 82 0
-1622 -82 1654 0
-1655 1623 0
-1655 83 0
-1623 -83 1655 0
-1656 1624 0
-1656 84 0
-1624 -84 1656 0
-1657 1625 0
-1657 85 0
-1625 -85 1657 0
-1658 1626 0
-1658 86 0
-1626 -86 1658 0
-1659 1627 0
-1659 87 0
-1627 -87 1659 0
-1660 1628 0
-1660 88 0
-1628 -88 1660 0
-1661 1629 0
-1661 89 0
-1629 -89 1661 0
-1662 1630 0
-1662 90 0
-1630 -90 1662 0
-1663 1631 0
-1663 91 0
-1631 -91 1663 0
-1664 1632 0
-1664 92 0
-1632 -92 1664 0
-1665 1633 0
-1665 93 0
-1633 -93 1665 0
-1666 1634 0
-1666 94 0
-1634 -94 1666 0
-1667 1635 0
-1667 95 0
-1635 -95 1667 0
-1668 1636 0
-1668 96 0
-1636 -96 1668 0
-1669 1637 0
-1669 97 0
-1637 -97 1669 0
-1670 1638 0
-1670 98 0
-1638 -98 1670 0
-1671 1639 0
-1671 99 0
-1639 -99 1671 0
-1672 1640 0
-1672 100 0
-1640 -100 1672 0
-1673 1641 0
-1673 101 0
-1641 -101 1673 0
-1674 1642 0
-1674 102 0
-1642 -102 1674 0
-1675 1643 0
-1675 103 0
-1643 -103 1675 0
-1676 1644 0
-1676 104 0
-1644 -104 1676 0
-1677 1645 0
-1677 105 0
-1645 -105 1677 0
-1678 1646 0
-1678 106 0
-1646 -106 1678 0
-1679 1647 0
-1679 107 0
-1647 -107 1679 0
-1680 1648 0
-1680 108 0
-1648 -108 1680 0
-1681 1649 0
-1681 109 0
-1649 -109 1681 0
-1682 1650 0
-1682 110 0
-1650 -110 1682 0
-1683 1651 0
-1683 111 0
-1651 -111 1683 0
-1684 1652 0
-1684 112 0
-1652 -112 1684 0
-1653 -1650 -1685 0
1653 1650 -1685 0
1653 -1650 1685 0
-1653 1650 1685 0
-1654 -1651 -1686 0
1654 1651 -1686 0
1654 -1651 1686 0
-1654 1651 1686 0
-1655 -1652 -1687 0
1655 1652 -1687 0
1655 -1652 1687 0
-1655 1652 1687 0
-1656 -1621 -1688 0
1656 1621 -1688 0
1656 -1621 1688 0
-1656 1621 1688 0
-1657 -1622 -1689 0
1657 1622 -1689 0
1657 -1622 1689 0
-1657 1622 1689 0
-1658 -1623 -1690 0
1658 1623 -1690 0
1658 -1623 1690 0
-1658 1623 1690 0
-1659 -1624 -1691 0
1659 1624 -1691 0
1659 -1624 1691 0
-1659 1624 1691 0
-1660 -1625 -1692 0
1660 1625 -1692 0
1660 -1625 1692 0
-1660 1625 1692 0
-1661 -1626 -1693 0
1661 1626 -1693 0
1661 -1626 1693 0
-1661 1626 1693 0
-1662 -1627 -1694 0
1662 1627 -1694 0
1662 -1627 1694 0
-1662 1627 1694 0
-1663 -1628 -1695 0
1663 1628 -1695 0
1663 -1628 1695 0
-1663 1628 1695 0
-1664 -1629 -1696 0
1664 1629 -1696 0
1664 -1629 1696 0
-1664 1629 1696 0
-1665 -1630 -1697 0
1665 1630 -1697 0
1665 -1630 1697 0
-1665 1630 1697 0
-1666 -1631 -1698 0
1666 1631 -1698 0
1666 -1631 1698 0
-1666 1631 1698 0
-1667 -1632 -1699 0
1667 1632 -1699 0
1667 -1632 1699 0
-1667 1632 1699 0
-1668 -1633 -1700 0
1668 1633 -1700 0
1668 -1633 1700 0
-1668 1633 1700 0
-1669 -1634 -1701 0
1669 1634 -1701 0
1669 -1634 1701 0
-1669 1634 1701 0
-1670 -1635 -1702 0
1670 1635 -1702 0
1670 -1635 1702 0
-1670 1635 1702 0
-1671 -1636 -1703 0
1671 1636 -1703 0
1671 -1636 1703 0
-1671 1636 1703 0
-1672 -1637 -1704 0
1672 1637 -1704 0
1672 -1637 1704 0
-1672 1637 1704 0
-1673 -1638 -1705 0
1673 1638 -1705 0
1673 -1638 1705 0
-1673 1638 1705 0
-1674 -1639 -1706 0
1674 1639 -1706 0
1674 -1639 1706 0
-1674 1639 1706 0
-1675 -1640 -1707 0
1675 1640 -1707 0
1675 -1640 1707 0
-1675 1640 1707 0
-1676 -1641 -1708 0
1676 1641 -1708 0
1676 -1641 1708 0
-1676 1641 1708 0
-1677 -1642 -1709 0
1677 1642 -1709 0
1677 -1642 1709 0
-1677 1642 1709 0
-1678 -1643 -1710 0
1678 1643 -1710 0
1678 -1643 1710 0
-1678 1643 1710 0
-1679 -1644 -1711 0
1679 1644 -1711 0
1679 -1644 1711 0
-1679 1644 1711 0
-1680 -1645 -1712 0
1680 1645 -1712 0
1680 -1645 1712 0
-1680 1645 1712 0
-1681 -1646 -1713 0
1681 1646 -1713 0
1681 -1646 1713 0
-1681 1646 1713 0
-1682 -1647 -1714 0
1682 1647 -1714 0
1682 -1647 1714 0
-1682 1647 1714 0
-1683 -1648 -1715 0
1683 1648 -1715 0
1683 -1648 1715 0
-1683 1648 1715 0
-1684 -1649 -1716 0
1684 1649 -1716 0
1684 -1649 1716 0
-1684 1649 1716 0
-1685 -81 -1717 0
1685 81 -1717 0
1685 -81 1717 0
-1685 81 1717 0
-1686 -82 -1718 0
1686 82 -1718 0
1686 -82 1718 0
-1686 82 1718 0
-1687 -83 -1719 0
1687 83 -1719 0
1687 -83 1719 0
-1687 83 1719 0
-1688 -84 -1720 0
1688 84 -1720 0
1688 -84 1720 0
-1688 84 1720 0
-1689 -85 -1721 0
1689 85 -1721 0
1689 -85 1721 0
-1689 85 1721 0
-1690 -86 -1722 0
1690 86 -1722 0
1690 -86 1722 0
-1690 86 1722 0
-1691 -87 -1723 0
1691 87 -1723 0
1691 -87 1723 0
-1691 87 1723 0
-1692 -88 -1724 0
1692 88 -1724 0
1692 -88 1724 0
-1692 88 1724 0
-1693 -89 -1725 0
1693 89 -1725 0
1693 -89 1725 0
-1693 89 1725 0
-1694 -90 -1726 0
1694 90 -1726 0
1694 -90 1726 0
-1694 90 1726 0
-1695 -91 -1727 0
1695 91 -1727 0
1695 -91 1727 0
-1695 91 1727 0
-1696 -92 -1728 0
1696 92 -1728 0
1696 -92 1728 0
-1696 92 1728 0
-1697 -93 -1729 0
1697 93 -1729 0
1697 -93 1729 0
-1697 93 1729 0
-1698 -94 -1730 0
1698 94 -1730 0
1698 -94 1730 0
-1698 94 1730 0
-1699 -95 -1731 0
1699 95 -1731 0
1699 -95 1731 0
-1699 95 1731 0
-1700 -96 -1732 0
1700 96 -1732 0
1700 -96 1732 0
-1700 96 1732 0
-1701 -97 -1733 0
1701 97 -1733 0
1701 -97 1733 0
-1701 97 1733 0
-1702 -98 -1734 0
1702 98 -1734 0
1702 -98 1734 0
-1702 98 1734 0
-1703 -99 -1735 0
1703 99 -1735 0
1703 -99 1735 0
-1703 99 1735 0
-1704 -100 -1736 0
1704 100 -1736 0
1704 -100 1736 0
-1704 100 1736 0
-1705 -101 -1737 0
1705 101 -1737 0
1705 -101 1737 0
-1705 101 1737 0
-1706 -102 -1738 0
1706 102 -1738 0
1706 -102 1738 0
-1706 102 1738 0
-1707 -103 -1739 0
1707 103 -1739 0
1707 -103 1739 0
-1707 103 1739 0
-1708 -104 -1740 0
1708 104 -1740 0
1708 -104 1740 0
-1708 104 1740 0
-1709 -105 -1741 0
1709 105 -1741 0
1709 -105 1741 0
-1709 105 1741 0
-1710 -106 -1742 0
1710 106 -1742 0
1710 -106 1742 0
-1710 106 1742 0
-1711 -107 -1743 0
1711 107 -1743 0
1711 -107 1743 0
-1711 107 1743 0
-1712 -108 -1744 0
1712 108 -1744 0
1712 -108 1744 0
-1712 108 1744 0
-1713 -109 -1745 0
1713 109 -1745 0
1713 -109 1745 0
-1713 109 1745 0
-1714 -110 -1746 0
1714 110 -1746 0
1714 -110 1746 0
-1714 110 1746 0
-1715 -111 -1747 0
1715 111 -1747 0
1715 -111 1747 0
-1715 111 1747 0
-1716 -112 -1748 0
1716 112 -1748 0
1716 -112 1748 0
-1716 112 1748 0
-1493 -1717 -1749 0
1493 1717 -1749 0
1493 -1717 1749 0
-1493 1717 1749 0
-1494 -1718 -1750 0
1494 1718 -1750 0
1494 -1718 1750 0
-1494 1718 1750 0
-1495 -1719 -1751 0
1495 1719 -1751 0
1495 -1719 1751 0
-1495 1719 1751 0
-1496 -1720 -1752 0
1496 1720 -1752 0
1496 -1720 1752 0
-1496 1720 1752 0
-1497 -1721 -1753 0
1497 1721 -1753 0
1497 -1721 1753 0
-1497 1721 1753 0
-1498 -1722 -1754 0
1498 1722 -1754 0
1498 -1722 1754 0
-1498 1722 1754 0
-1499 -1723 -1755 0
1499 1723 -1755 0
1499 -1723 1755 0
-1499 1723 1755 0
-1500 -1724 -1756 0
1500 1724 -1756 0
1500 -1724 1756 0
-1500 1724 1756 0
-1501 -1725 -1757 0
1501 1725 -1757 0
1501 -1725 1757 0
-1501 1725 1757 0
-1502 -1726 -1758 0
1502 1726 -1758 0
1502 -1726 1758 0
-1502 1726 1758 0
-1503 -1727 -1759 0
1503 1727 -1759 0
1503 -1727 1759 0
-1503 1727 1759 0
-1504 -1728 -1760 0
1504 1728 -1760 0
1504 -1728 1760 0
-1504 1728 1760 0
-1505 -1729 -1761 0
1505 1729 -1761 0
1505 -1729 1761 0
-1505 1729 1761 0
-1506 -1730 -1762 0
1506 1730 -1762 0
1506 -1730 1762 0
-1506 1730 1762 0
-1507 -1731 -1763 0
1507 1731 -1763 0
1507 -1731 1763 0
-1507 1731 1763 0
-1508 -1732 -1764 0
1508 1732 -1764 0
1508 -1732 1764 0
-1508 1732 1764 0
-1509 -1733 -1765 0
1509 1733 -1765 0
1509 -1733 1765 0
-1509 1733 1765 0
-1510 -1734 -1766 0
1510 1734 -1766 0
1510 -1734 1766 0
-1510 1734 1766 0
-1511 -1735 -1767 0
1511 1735 -1767 0
1511 -1735 1767 0
-1511 1735 1767 0
-1512 -1736 -1768 0
1512 1736 -1768 0
1512 -1736 1768 0
-1512 1736 1768 0
-1513 -1737 -1769 0
1513 1737 -1769 0
1513 -1737 1769 0
-1513 1737 1769 0
-1514 -1738 -1770 0
1514 1738 -1770 0
1514 -1738 1770 0
-1514 1738 1770 0
-1515 -1739 -1771 0
1515 1739 -1771 0
1515 -1739 1771 0
-1515 1739 1771 0
-1516 -1740 -1772 0
1516 1740 -1772 0
1516 -1740 1772 0
-1516 1740 1772 0
-1517 -1741 -1773 0
1517 1741 -1773 0
1517 -1741 1773 0
-1517 1741 1773 0
-1518 -1742 -1774 0
1518 1742 -1774 0
1518 -1742 1774 0
-1518 1742 1774 0
-1519 -1743 -1775 0
1519 1743 -1775 0
1519 -1743 1775 0
-1519 1743 1775 0
-1520 -1744 -1776 0
1520 1744 -1776 0
1520 -1744 1776 0
-1520 1744 1776 0
-1521 -1745 -1777 0
1521 1745 -1777 0
1521 -1745 1777 0
-1521 1745 1777 0
-1522 -1746 -1778 0
1522 1746 -1778 0
1522 -1746 1778 0
-1522 1746 1778 0
-1523 -1747 -1779 0
1523 1747 -1779 0
1523 -1747 1779 0
-1523 1747 1779 0
-1524 -1748 -1780 0
1524 1748 -1780 0
1524 -1748 1780 0
-1524 1748 1780 0
-1781 1749 0
-1781 78 0
-1749 -78 1781 0
-1782 1750 0
-1782 79 0
-1750 -79 1782 0
-1783 1751 0
-1783 80 0
-1751 -80 1783 0
-1784 1752 0
-1784 81 0
-1752 -81 1784 0
-1785 1753 0
-1785 82 0
-1753 -82 1785 0
-1786 1754 0
-1786 83 0
-1754 -83 1786 0
-1787 1755 0
-1787 84 0
-1755 -84 1787 0
-1788 1756 0
-1788 85 0
-1756 -85 1788 0
-1789 1757 0
-1789 86 0
-1757 -86 1789 0
-1790 1758 0
-1790 87 0
-1758 -87 1790 0
-1791 1759 0
-1791 88 0
-1759 -88 1791 0
-1792 1760 0
-1792 89 0
-1760 -89 1792 0
-1793 1761 0
-1793 90 0
-1761 -90 1793 0
-1794 1762 0
-1794 91 0
-1762 -91 1794 0
-1795 1763 0
-1795 92 0
-1763 -92 1795 0
-1796 1764 0
-1796 93 0
-1764 -93 1796 0
-1797 1765 0
-1797 94 0
-1765 -94 1797 0
-1798 1766 0
-1798 95 0
-1766 -95 1798 0
-1799 1767 0
-1799 96 0
-1767 -96 1799 0
-1800 1768 0
-1800 97 0
-1768 -97 1800 0
-1801 1769 0
-1801 98 0
-1769 -98 1801 0
-1802 1770 0
-1802 99 0
-1770 -99 1802 0
-1803 1771 0
-1803 100 0
-1771 -100 1803 0
-1804 1772 0
-1804 101 0
-1772 -101 1804 0
-1805 1773 0
-1805 102 0
-1773 -102 1805 0
-1806 1774 0
-1806 103 0
-1774 -103 1806 0
-1807 1775 0
-1807 104 0
-1775 -104 1807 0
-1808 1776 0
-1808 105 0
-1776 -105 1808 0
-1809 1777 0
-1809 106 0
-1777 -106 1809 0
-1810 1778 0
-1810 107 0
-1778 -107 1810 0
-1811 1779 0
-1811 108 0
-1779 -108 1811 0
-1812 1780 0
-1812 109 0
-1780 -109 1812 0
-1781 -1778 -1813 0
1781 1778 -1813 0
1781 -1778 1813 0
-1781 1778 1813 0
-1782 -1779 -1814 0
1782 1779 -1814 0
1782 -1779 1814 0
-1782 1779 1814 0
-1783 -1780 -1815 0
1783 1780 -1815 0
1783 -1780 1815 0
-1783 1780 1815 0
-1784 -1749 -1816 0
1784 1749 -1816 0
1784 -1749 1816 0
-1784 1749 1816 0
-1785 -1750 -1817 0
1785 1750 -1817 0
1785 -1750 1817 0
-1785 1750 1817 0
-1786 -1751 -1818 0
1786 1751 -1818 0
1786 -1751 1818 0
-1786 1751 1818 0
-1787 -1752 -1819 0
1787 1752 -1819 0
1787 -1752 1819 0
-1787 1752 1819 0
-1788 -1753 -1820 0
1788 1753 -1820 0
1788 -1753 1820 0
-1788 1753 1820 0
-1789 -1754 -1821 0
1789 1754 -1821 0
1789 -1754 1821 0
-1789 1754 1821 0
-1790 -1755 -1822 0
1790 1755 -1822 0
1790 -1755 1822 0
-1790 1755 1822 0
-1791 -1756 -1823 0
1791 1756 -1823 0
1791 -1756 1823 0
-1791 1756 1823 0
-1792 -1757 -1824 0
1792 1757 -1824 0
1792 -1757 1824 0
-1792 1757 1824 0
-1793 -1758 -1825 0
1793 1758 -1825 0
1793 -1758 1825 0
-1793 1758 1825 0
-1794 -1759 -1826 0
1794 1759 -1826 0
1794 -1759 1826 0
-1794 1759 1826 0
-1795 -1760 -1827 0
1795 1760 -1827 0
1795 -1760 1827 0
-1795 1760 1827 0
-1796 -1761 -1828 0
1796 1761 -1828 0
1796 -1761 1828 0
-1796 1761 1828 0
-1797 -1762 -1829 0
1797 1762 -1829 0
1797 -1762 1829 0
-1797 1762 1829 0
-1798 -1763 -1830 0
1798 1763 -1830 0
1798 -1763 1830 0
-1798 1763 1830 0
-1799 -1764 -1831 0
1799 1764 -1831 0
1799 -1764 1831 0
-1799 1764 1831 0
-1800 -1765 -1832 0
1800 1765 -1832 0
1800 -1765 1832 0
-1800 1765 1832 0
-1801 -1766 -1833 0
1801 1766 -1833 0
1801 -1766 1833 0
-1801 1766 1833 0
-1802 -1767 -1834 0
1802 1767 -1834 0
1802 -1767 1834 0
-1802 1767 1834 0
-1803 -1768 -1835 0
1803 1768 -1835 0
1803 -1768 1835 0
-1803 1768 1835 0
-1804 -1769 -1836 0
1804 1769 -1836 0
1804 -1769 1836 0
-1804 1769 1836 0
-1805 -1770 -1837 0
1805 1770 -1837 0
1805 -1770 1837 0
-1805 1770 1837 0
-1806 -1771 -1838 0
1806 1771 -1838 0
1806 -1771 1838 0
-1806 1771 1838 0
-1807 -1772 -1839 0
1807 1772 -1839 0
1807 -1772 1839 0
-1807 1772 1839 0
-1808 -1773 -1840 0
1808 1773 -1840 0
1808 -1773 1840 0
-1808 1773 1840 0
-1809 -1774 -1841 0
1809 1774 -1841 0
1809 -1774 1841 0
-1809 1774 1841 0
-1810 -1775 -1842 0
1810 1775 -1842 0
1810 -1775 1842 0
-1810 1775 1842 0
-1811 -1776 -1843 0
1811 1776 -1843 0
1811 -1776 1843 0
-1811 1776 1843 0
-1812 -1777 -1844 0
1812 1777 -1844 0
1812 -1777 1844 0
-1812 1777 1844 0
-1813 -78 -1845 0
1813 78 -1845 0
1813 -78 1845 0
-1813 78 1845 0
-1814 -79 -1846 0
1814 79 -1846 0
1814 -79 1846 0
-1814 79 1846 0
-1815 -80 -1847 0
1815 80 -1847 0
1815 -80 1847 0
-1815 80 1847 0
-1816 -81 -1848 0
1816 81 -1848 0
1816 -81 1848 0
-1816 81 1848 0
-1817 -82 -1849 0
1817 82 -1849 0
1817 -82 1849 0
-1817 82 1849 0
-1818 -83 -1850 0
1818 83 -1850 0
1818 -83 1850 0
-1818 83 1850 0
-1819 -84 -1851 0
1819 84 -1851 0
1819 -84 1851 0
-1819 84 1851 0
-1820 -85 -1852 0
1820 85 -1852 0
1820 -85 1852 0
-1820 85 1852 0
-1821 -86 -1853 0
1821 86 -1853 0
1821 -86 1853 0
-1821 86 1853 0
-1822 -87 -1854 0
1822 87 -1854 0
1822 -87 1854 0
-1822 87 1854 0
-1823 -88 -1855 0
1823 88 -1855 0
1823 -88 1855 0
-1823 88 1855 0
-1824 -89 -1856 0
1824 89 -1856 0
1824 -89 1856 0
-1824 89 1856 0
-1825 -90 -1857 0
1825 90 -1857 0
1825 -90 1857 0
-1825 90 1857 0
-1826 -91 -1858 0
1826 91 -1858 0
1826 -91 1858 0
-1826 91 1858 0
-1827 -92 -1859 0
1827 92 -1859 0
1827 -92 1859 0
-1827 92 1859 0
-1828 -93 -1860 0
1828 93 -1860 0
1828 -93 1860 0
-1828 93 1860 0
-1829 -94 -1861 0
1829 94 -1861 0
1829 -94 1861 0
-1829 94 1861 0
-1830 -95 -1862 0
1830 95 -1862 0
1830 -95 1862 0
-1830 95 1862 0
-1831 -96 -1863 0
1831 96 -1863 0
1831 -96 1863 0
-1831 96 1863 0
-1832 -97 -1864 0
1832 97 -1864 0
1832 -97 1864 0
-1832 97 1864 0
-1833 -98 -1865 0
1833 98 -1865 0
1833 -98 1865 0
-1833 98 1865 0
-1834 -99 -1866 0
1834 99 -1866 0
1834 -99 1866 0
-1834 99 1866 0
-1835 -100 -1867 0
1835 100 -1867 0
1835 -100 1867 0
-1835 100 1867 0
-1836 -101 -1868 0
1836 101 -1868 0
1836 -101 1868 0
-1836 101 1868 0
-1837 -102 -1869 0
1837 102 -1869 0
1837 -102 1869 0
-1837 102 1869 0
-1838 -103 -1870 0
1838 103 -1870 0
1838 -103 1870 0
-1838 103 1870 0
-1839 -104 -1871 0
1839 104 -1871 0
1839 -104 1871 0
-1839 104 1871 0
-1840 -105 -1872 0
1840 105 -1872 0
1840 -105 1872 0
-1840 105 1872 0
-1841 -106 -1873 0
1841 106 -1873 0
1841 -106 1873 0
-1841 106 1873 0
-1842 -107 -1874 0
1842 107 -1874 0
1842 -107 1874 0
-1842 107 1874 0
-1843 -108 -1875 0
1843 108 -1875 0
1843 -108 1875 0
-1843 108 1875 0
-1844 -109 -1876 0
1844 109 -1876 0
1844 -109 1876 0
-1844 109 1876 0
-1621 -1845 -1877 0
1621 1845 -1877 0
1621 -1845 1877 0
-1621 1845 1877 0
-1622 -1846 -1878 0
1622 1846 -1878 0
1622 -1846 1878 0
-1622 1846 1878 0
-1623 -1847 -1879 0
1623 1847 -1879 0
1623 -1847 1879 0
-1623 1847 1879 0
-1624 -1848 -1880 0
1624 1848 -1880 0
1624 -1848 1880 0
-1624 1848 1880 0
-1625 -1849 -1881 0
1625 1849 -1881 0
1625 -1849 1881 0
-1625 1849 1881 0
-1626 -1850 -1882 0
1626 1850 -1882 0
1626 -1850 1882 0
-1626 1850 1882 0
-1627 -1851 -1883 0
1627 1851 -1883 0
1627 -1851 1883 0
-1627 1851 1883 0
-1628 -1852 -1884 0
1628 1852 -1884 0
1628 -1852 1884 0
-1628 1852 1884 0
-1629 -1853 -1885 0
1629 1853 -1885 0
1629 -1853 1885 0
-1629 1853 1885 0
-1630 -1854 -1886 0
1630 1854 -1886 0
1630 -1854 1886 0
-1630 1854 1886 0
-1631 -1855 -1887 0
1631 1855 -1887 0
1631 -1855 1887 0
-1631 1855 1887 0
-1632 -1856 -1888 0
1632 1856 -1888 0
1632 -1856 1888 0
-1632 1856 1888 0
-1633 -1857 -1889 0
1633 1857 -1889 0
1633 -1857 1889 0
-1633 1857 1889 0
-1634 -1858 -1890 0
1634 1858 -1890 0
1634 -1858 1890 0
-1634 1858 1890 0
-1635 -1859 -1891 0
1635 1859 -1891 0
1635 -1859 1891 0
-1635 1859 1891 0
-1636 -1860 -1892 0
1636 1860 -1892 0
1636 -1860 1892 0
-1636 1860 1892 0
-1637 -1861 -1893 0
1637 1861 -1893 0
1637 -1861 1893 0
-1637 1861 1893 0
-1638 -1862 -1894 0
1638 1862 -1894 0
1638 -1862 1894 0
-1638 1862 1894 0
-1639 -1863 -1895 0
1639 1863 -1895 0
1639 -1863 1895 0
-1639 1863 1895 0
-1640 -1864 -1896 0
1640 1864 -1896 0
1640 -1864 1896 0
-1640 1864 1896 0
-1641 -1865 -1897 0
1641 1865 -1897 0
1641 -1865 1897 0
-1641 1865 1897 0
-1642 -1866 -1898 0
1642 1866 -1898 0
1642 -1866 1898 0
-1642 1866 1898 0
-1643 -1867 -1899 0
1643 1867 -1899 0
1643 -1867 1899 0
-1643 1867 1899 0
-1644 -1868 -1900 0
1644 1868 -1900 0
1644 -1868 1900 0
-1644 1868 1900 0
-1645 -1869 -1901 0
1645 1869 -1901 0
1645 -1869 1901 0
-1645 1869 1901 0
-1646 -1870 -1902 0
1646 1870 -1902 0
1646 -1870 1902 0
-1646 1870 1902 0
-1647 -1871 -1903 0
1647 1871 -1903 0
1647 -1871 1903 0
-1647 1871 1903 0
-1648 -1872 -1904 0
1648 1872 -1904 0
1648 -1872 1904 0
-1648 1872 1904 0
-1649 -1873 -1905 0
1649 1873 -1905 0
1649 -1873 1905 0
-1649 1873 1905 0
-1650 -1874 -1906 0
1650 1874 -1906 0
1650 -1874 1906 0
-1650 1874 1906 0
-1651 -1875 -1907 0
1651 1875 -1907 0
1651 -1875 1907 0
-1651 1875 1907 0
-1652 -1876 -1908 0
1652 1876 -1908 0
1652 -1876 1908 0
-1652 1876 1908 0
-1909 1877 0
-1909 75 0
-1877 -75 1909 0
-1910 1878 0
-1910 76 0
-1878 -76 1910 0
-1911 1879 0
-1911 77 0
-1879 -77 1911 0
-1912 1880 0
-1912 78 0
-1880 -78 1912 0
-1913 1881 0
-1913 79 0
-1881 -79 1913 0
-1914 1882 0
-1914 80 0
-1882 -80 1914 0
-1915 1883 0
-1915 81 0
-1883 -81 1915 0
-1916 1884 0
-1916 82 0
-1884 -82 1916 0
-1917 1885 0
-1917 83 0
-1885 -83 1917 0
-1918 1886 0
-1918 84 0
-1886 -84 1918 0
-1919 1887 0
-1919 85 0
-1887 -85 1919 0
-1920 1888 0
-1920 86 0
-1888 -86 1920 0
-1921 1889 0
-1921 87 0
-1889 -87 1921 0
-1922 1890 0
-1922 88 0
-1890 -88 1922 0
-1923 1891 0
-1923 89 0
-1891 -89 1923 0
-1924 1892 0
-1924 90 0
-1892 -90 1924 0
-1925 1893 0
-1925 91 0
-1893 -91 1925 0
-1926 1894 0
-1926 92 0
-1894 -92 1926 0
-1927 1895 0
-1927 93 0
-1895 -93 1927 0
-1928 1896 0
-1928 94 0
-1896 -94 1928 0
-1929 1897 0
-1929 95 0
-1897 -95 1929 0
-1930 1898 0
-1930 96 0
-1898 -96 1930 0
-1931 1899 0
-1931 97 0
-1899 -97 1931 0
-1932 1900 0
-1932 98 0
-1900 -98 1932 0
-1933 1901 0
-1933 99 0
-1901 -99 1933 0
-1934 1902 0
-1934 100 0
-1902 -100 1934 0
-1935 1903 0
-1935 101 0
-1903 -101 1935 0
-1936 1904 0
-1936 102 0
-1904 -102 1936 0
-1937 1905 0
-1937 103 0
-1905 -103 1937 0
-1938 1906 0
-1938 104 0
-1906 -104 1938 0
-1939 1907 0
-1939 105 0
-1907 -105 1939 0
-1940 1908 0
-1940 106 0
-1908 -106 1940 0
-1909 -1906 -1941 0
1909 1906 -1941 0
1909 -1906 1941 0
-1909 1906 1941 0
-1910 -1907 -1942 0
1910 1907 -1942 0
1910 -1907 1942 0
-1910 1907 1942 0
-1911 -1908 -1943 0
1911 1908 -1943 0
1911 -1908 1943 0
-1911 1908 1943 0
-1912 -1877 -1944 0
1912 1877 -1944 0
1912 -1877 1944 0
-1912 1877 1944 0
-1913 -1878 -1945 0
1913 1878 -1945 0
1913 -1878 1945 0
-1913 1878 1945 0
-1914 -1879 -1946 0
1914 1879 -1946 0
1914 -1879 1946 0
-1914 1879 1946 0
-1915 -1880 -1947 0
1915 1880 -1947 0
1915 -1880 1947 0
-1915 1880 1947 0
-1916 -1881 -1948 0
1916 1881 -1948 0
1916 -1881 1948 0
-1916 1881 1948 0
-1917 -1882 -1949 0
1917 1882 -1949 0
1917 -1882 1949 0
-1917 1882 1949 0
-1918 -1883 -1950 0
1918 1883 -1950 0
1918 -1883 1950 0
-1918 1883 1950 0
-1919 -1884 -1951 0
1919 1884 -1951 0
1919 -1884 1951 0
-1919 1884 1951 0
-1920 -1885 -1952 0
1920 1885 -1952 0
1920 -1885 1952 0
-1920 1885 1952 0
-1921 -1886 -1953 0
1921 1886 -1953 0
1921 -1886 1953 0
-1921 1886 1953 0
-1922 -1887 -1954 0
1922 1887 -1954 0
1922 -1887 1954 0
-1922 1887 1954 0
-1923 -1888 -1955 0
1923 1888 -1955 0
1923 -1888 1955 0
-1923 1888 1955 0
-1924 -1889 -1956 0
1924 1889 -1956 0
1924 -1889 1956 0
-1924 1889 1956 0
-1925 -1890 -1957 0
1925 1890 -1957 0
1925 -1890 1957 0
-1925 1890 1957 0
-1926 -1891 -1958 0
1926 1891 -1958 0
1926 -1891 1958 0
-1926 1891 1958 0
-1927 -1892 -1959 0
1927 1892 -1959 0
1927 -1892 1959 0
-1927 1892 1959 0
-1928 -1893 -1960 0
1928 1893 -1960 0
1928 -1893 1960 0
-1928 1893 1960 0
-1929 -1894 -1961 0
1929 1894 -1961 0
1929 -1894 1961 0
-1929 1894 1961 0
-1930 -1895 -1962 0
1930 1895 -1962 0
1930 -1895 1962 0
-1930 1895 1962 0
-1931 -1896 -1963 0
1931 1896 -1963 0
1931 -1896 1963 0
-1931 1896 1963 0
-1932 -1897 -1964 0
1932 1897 -1964 0
1932 -1897 1964 0
-1932 1897 1964 0
-1933 -1898 -1965 0
1933 1898 -1965 0
1933 -1898 1965 0
-1933 1898 1965 0
-1934 -1899 -1966 0
1934 1899 -1966 0
1934 -1899 1966 0
-1934 1899 1966 0
-1935 -1900 -1967 0
1935 1900 -1967 0
1935 -1900 1967 0
-1935 1900 1967 0
-1936 -1901 -1968 0
1936 1901 -1968 0
1936 -1901 1968 0
-1936 1901 1968 0
-1937 -1902 -1969 0
1937 1902 -1969 0
1937 -1902 1969 0
-1937 1902 1969 0
-1938 -1903 -1970 0
1938 1903 -1970 0
1938 -1903 1970 0
-1938 1903 1970 0
-1939 -1904 -1971 0
1939 1904 -1971 0
1939 -1904 1971 0
-1939 1904 1971 0
-1940 -1905 -1972 0
1940 1905 -1972 0
1940 -1905 1972 0
-1940 1905 1972 0
-1941 -75 -1973 0
1941 75 -1973 0
1941 -75 1973 0
-1941 75 1973 0
-1942 -76 -1974 0
1942 76 -1974 0
1942 -76 1974 0
-1942 76 1974 0
-1943 -77 -1975 0
1943 77 -1975 0
1943 -77 1975 0
-1943 77 1975 0
-1944 -78 -1976 0
1944 78 -1976 0
1944 -78 1976 0
-1944 78 1976 0
-1945 -79 -1977 0
1945 79 -1977 0
1945 -79 1977 0
-1945 79 1977 0
-1946 -80 -1978 0
1946 80 -1978 0
1946 -80 1978 0
-1946 80 1978 0
-1947 -81 -1979 0
1947 81 -1979 0
1947 -81 1979 0
-1947 81 1979 0
-1948 -82 -1980 0
1948 82 -1980 0
1948 -82 1980 0
-1948 82 1980 0
-1949 -83 -1981 0
1949 83 -1981 0
1949 -83 1981 0
-1949 83 1981 0
-1950 -84 -1982 0
1950 84 -1982 0
1950 -84 1982 0
-1950 84 1982 0
-1951 -85 -1983 0
1951 85 -1983 0
1951 -85 1983 0
-1951 85 1983 0
-1952 -86 -1984 0
1952 86 -1984 0
1952 -86 1984 0
-1952 86 1984 0
-1953 -87 -1985 0
1953 87 -1985 0
1953 -87 1985 0
-1953 87 1985 0
-1954 -88 -1986 0
1954 88 -1986 0
1954 -88 1986 0
-1954 88 1986 0
-1955 -89 -1987 0
1955 89 -1987 0
1955 -89 1987 0
-1955 89 1987 0
-1956 -90 -1988 0
1956 90 -1988 0
1956 -90 1988 0
-1956 90 1988 0
-1957 -91 -1989 0
1957 91 -1989 0
1957 -91 1989 0
-1957 91 1989 0
-1958 -92 -1990 0
1958 92 -1990 0
1958 -92 1990 0
-1958 92 1990 0
-1959 -93 -1991 0
1959 93 -1991 0
1959 -93 1991 0
-1959 93 1991 0
-1960 -94 -1992 0
1960 94 -1992 0
1960 -94 1992 0
-1960 94 1992 0
-1961 -95 -1993 0
1961 95 -1993 0
1961 -95 1993 0
-1961 95 1993 0
-1962 -96 -1994 0
1962 96 -1994 0
1962 -96 1994 0
-1962 96 1994 0
-1963 -97 -1995 0
1963 97 -1995 0
1963 -97 1995 0
-1963 97 1995 0
-1964 -98 -1996 0
1964 98 -1996 0
1964 -98 1996 0
-1964 98 1996 0
-1965 -99 -1997 0
1965 99 -1997 0
1965 -99 1997 0
-1965 99 1997 0
-1966 -100 -1998 0
1966 100 -1998 0
1966 -100 1998 0
-1966 100 1998 0
-1967 -101 -1999 0
1967 101 -1999 0
1967 -101 1999 0
-1967 101 1999 0
-1968 -102 -2000 0
1968 102 -2000 0
1968 -102 2000 0
-1968 102 2000 0
-1969 -103 -2001 0
1969 103 -2001 0
1969 -103 2001 0
-1969 103 2001 0
-1970 -104 -2002 0
1970 104 -2002 0
1970 -104 2002 0
-1970 104 2002 0
-1971 -105 -2003 0
1971 105 -2003 0
1971 -105 2003 0
-1971 105 2003 0
-1972 -106 -2004 0
1972 106 -2004 0
1972 -106 2004 0
-1972 106 2004 0
-1749 -1973 -2005 0
1749 1973 -2005 0
1749 -1973 2005 0
-1749 1973 2005 0
-1750 -1974 -2006 0
1750 1974 -2006 0
1750 -1974 2006 0
-1750 1974 2006 0
-1751 -1975 -2007 0
1751 1975 -2007 0
1751 -1975 2007 0
-1751 1975 2007 0
-1752 -1976 -2008 0
1752 1976 -2008 0
1752 -1976 2008 0
-1752 1976 2008 0
-1753 -1977 -2009 0
1753 1977 -2009 0
1753 -1977 2009 0
-1753 1977 2009 0
-1754 -1978 -2010 0
1754 1978 -2010 0
1754 -1978 2010 0
-1754 1978 2010 0
-1755 -1979 -2011 0
1755 1979 -2011 0
1755 -1979 2011 0
-1755 1979 2011 0
-1756 -1980 -2012 0
1756 1980 -2012 0
1756 -1980 2012 0
-1756 1980 2012 0
-1757 -1981 -2013 0
1757 1981 -2013 0
1757 -1981 2013 0
-1757 1981 2013 0
-1758 -1982 -2014 0
1758 1982 -2014 0
1758 -1982 2014 0
-1758 1982 2014 0
-1759 -1983 -2015 0
1759 1983 -2015 0
1759 -1983 2015 0
-1759 1983 2015 0
-1760 -1984 -2016 0
1760 1984 -2016 0
1760 -1984 2016 0
-1760 1984 2016 0
-1761 -1985 -2017 0
1761 1985 -2017 0
1761 -1985 2017 0
-1761 1985 2017 0
-1762 -1986 -2018 0
1762 1986 -2018 0
1762 -1986 2018 0
-1762 1986 2018 0
-1763 -1987 -2019 0
1763 1987 -2019 0
1763 -1987 2019 0
-1763 1987 2019 0
-1764 -1988 -2020 0
1764 1988 -2020 0
1764 -1988 2020 0
-1764 1988 2020 0
-1765 -1989 -2021 0
1765 1989 -2021 0
1765 -1989 2021 0
-1765 1989 2021 0
-1766 -1990 -2022 0
1766 1990 -2022 0
1766 -1990 2022 0
-1766 1990 2022 0
-1767 -1991 -2023 0
1767 1991 -2023 0
1767 -1991 2023 0
-1767 1991 2023 0
-1768 -1992 -2024 0
1768 1992 -2024 0
1768 -1992 2024 0
-1768 1992 2024 0
-1769 -1993 -2025 0
1769 1993 -2025 0
1769 -1993 2025 0
-1769 1993 2025 0
-1770 -1994 -2026 0
1770 1994 -2026 0
1770 -1994 2026 0
-1770 1994 2026 0
-1771 -1995 -2027 0
1771 1995 -2027 0
1771 -1995 2027 0
-1771 1995 2027 0
-1772 -1996 -2028 0
1772 1996 -2028 0
1772 -1996 2028 0
-1772 1996 2028 0
-1773 -1997 -2029 0
1773 1997 -2029 0
1773 -1997 2029 0
-1773 1997 2029 0
-1774 -1998 -2030 0
1774 1998 -2030 0
1774 -1998 2030 0
-1774 1998 2030 0
-1775 -1999 -2031 0
1775 1999 -2031 0
1775 -1999 2031 0
-1775 1999 2031 0
-1776 -2000 -2032 0
1776 2000 -2032 0
1776 -2000 2032 0
-1776 2000 2032 0
-1777 -2001 -2033 0
1777 2001 -2033 0
1777 -2001 2033 0
-1777 2001 2033 0
-1778 -2002 -2034 0
1778 2002 -2034 0
1778 -2002 2034 0
-1778 2002 2034 0
-1779 -2003 -2035 0
1779 2003 -2035 0
1779 -2003 2035 0
-1779 2003 2035 0
-1780 -2004 -2036 0
1780 2004 -2036 0
1780 -2004 2036 0
-1780 2004 2036 0
-1 0
-2 0
-3 0
-4 0
-5 0
-6 0
-7 0
-8 0
-9 0
-10 0
-11 0
-12 0
-13 0
-14 0
-15 0
-16 0
-17 0
-18 0
-19 0
-20 0
-21 0
-22 0
-23 0
-24 0
-25 0
-26 0
-27 0
-28 0
-29 0
-30 0
-31 0
-32 0
-33 0
-34 0
-35 0
-36 0
-37 0
-38 0
-39 0
-40 0
-41 0
-42 0
-43 0
-44 0
-45 0
-46 0
-47 0
-48 0
-49 0
-50 0
-51 0
-52 0
-53 0
-54 0
-55 0
-56 0
-57 0
-58 0
-59 0
-60 0
-61 0
-62 0
-63 0
-64 0
-2005 0
2006 0
-2007 0
-2008 0
-2009 0
2010 0
2011 0
-2012 0
2013 0
-2014 0
2015 0
2016 0
2017 0
2018 0
-2019 0
-2020 0
2021 0
2022 0
2023 0
2024 0
2025 0
2026 0
2027 0
-2028 0
-2029 0
-2030 0
-2031 0
-2032 0
-2033 0
2034 0
2035 0
-2036 0
1877 0
-1878 0
-1879 0
1880 0
-1881 0
-1882 0
-1883 0
1884 0
1885 0
1886 0
-1887 0
1888 0
-1889 0
-1890 0
1891 0
1892 0
-1893 0
1894 0
1895 0
1896 0
-1897 0
-1898 0
1899 0
1900 0
-1901 0
-1902 0
1903 0
1904 0
1905 0
-1906 0
-1907 0
-1908 0
