c Feistel cipher key recovery — XOR-heavy crypto benchmark
c block_size=48 key_size=24 rounds=4 seed=42
c plaintext=0x7763222724a2 key=0xad517d ciphertext=0x7ee5ed48222c
c vars=456 clauses=1536
c Expected: SATISFIABLE (key recovery)
p cnf 456 1536
-73 1 0
-73 49 0
-1 -49 73 0
-74 2 0
-74 50 0
-2 -50 74 0
-75 3 0
-75 51 0
-3 -51 75 0
-76 4 0
-76 52 0
-4 -52 76 0
-77 5 0
-77 53 0
-5 -53 77 0
-78 6 0
-78 54 0
-6 -54 78 0
-79 7 0
-79 55 0
-7 -55 79 0
-80 8 0
-80 56 0
-8 -56 80 0
-81 9 0
-81 57 0
-9 -57 81 0
-82 10 0
-82 58 0
-10 -58 82 0
-83 11 0
-83 59 0
-11 -59 83 0
-84 12 0
-84 60 0
-12 -60 84 0
-85 13 0
-85 61 0
-13 -61 85 0
-86 14 0
-86 62 0
-14 -62 86 0
-87 15 0
-87 63 0
-15 -63 87 0
-88 16 0
-88 64 0
-16 -64 88 0
-89 17 0
-89 65 0
-17 -65 89 0
-90 18 0
-90 66 0
-18 -66 90 0
-91 19 0
-91 67 0
-19 -67 91 0
-92 20 0
-92 68 0
-20 -68 92 0
-93 21 0
-93 69 0
-21 -69 93 0
-94 22 0
-94 70 0
-22 -70 94 0
-95 23 0
-95 71 0
-23 -71 95 0
-96 24 0
-96 72 0
-24 -72 96 0
-73 -22 -97 0
73 22 -97 0
73 -22 97 0
-73 22 97 0
-74 -23 -98 0
74 23 -98 0
74 -23 98 0
-74 23 98 0
-75 -24 -99 0
75 24 -99 0
75 -24 99 0
-75 24 99 0
-76 -1 -100 0
76 1 -100 0
76 -1 100 0
-76 1 100 0
-77 -2 -101 0
77 2 -101 0
77 -2 101 0
-77 2 101 0
-78 -3 -102 0
78 3 -102 0
78 -3 102 0
-78 3 102 0
-79 -4 -103 0
79 4 -103 0
79 -4 103 0
-79 4 103 0
-80 -5 -104 0
80 5 -104 0
80 -5 104 0
-80 5 104 0
-81 -6 -105 0
81 6 -105 0
81 -6 105 0
-81 6 105 0
-82 -7 -106 0
82 7 -106 0
82 -7 106 0
-82 7 106 0
-83 -8 -107 0
83 8 -107 0
83 -8 107 0
-83 8 107 0
-84 -9 -108 0
84 9 -108 0
84 -9 108 0
-84 9 108 0
-85 -10 -109 0
85 10 -109 0
85 -10 109 0
-85 10 109 0
-86 -11 -110 0
86 11 -110 0
86 -11 110 0
-86 11 110 0
-87 -12 -111 0
87 12 -111 0
87 -12 111 0
-87 12 111 0
-88 -13 -112 0
88 13 -112 0
88 -13 112 0
-88 13 112 0
-89 -14 -113 0
89 14 -113 0
89 -14 113 0
-89 14 113 0
-90 -15 -114 0
90 15 -114 0
90 -15 114 0
-90 15 114 0
-91 -16 -115 0
91 16 -115 0
91 -16 115 0
-91 16 115 0
-92 -17 -116 0
92 17 -116 0
92 -17 116 0
-92 17 116 0
-93 -18 -117 0
93 18 -117 0
93 -18 117 0
-93 18 117 0
-94 -19 -118 0
94 19 -118 0
94 -19 118 0
-94 19 118 0
-95 -20 -119 0
95 20 -119 0
95 -20 119 0
-95 20 119 0
-96 -21 -120 0
96 21 -120 0
96 -21 120 0
-96 21 120 0
-97 -49 -121 0
97 49 -121 0
97 -49 121 0
-97 49 121 0
-98 -50 -122 0
98 50 -122 0
98 -50 122 0
-98 50 122 0
-99 -51 -123 0
99 51 -123 0
99 -51 123 0
-99 51 123 0
-100 -52 -124 0
100 52 -124 0
100 -52 124 0
-100 52 124 0
-101 -53 -125 0
101 53 -125 0
101 -53 125 0
-101 53 125 0
-102 -54 -126 0
102 54 -126 0
102 -54 126 0
-102 54 126 0
-103 -55 -127 0
103 55 -127 0
103 -55 127 0
-103 55 127 0
-104 -56 -128 0
104 56 -128 0
104 -56 128 0
-104 56 128 0
-105 -57 -129 0
105 57 -129 0
105 -57 129 0
-105 57 129 0
-106 -58 -130 0
106 58 -130 0
106 -58 130 0
-106 58 130 0
-107 -59 -131 0
107 59 -131 0
107 -59 131 0
-107 59 131 0
-108 -60 -132 0
108 60 -132 0
108 -60 132 0
-108 60 132 0
-109 -61 -133 0
109 61 -133 0
109 -61 133 0
-109 61 133 0
-110 -62 -134 0
110 62 -134 0
110 -62 134 0
-110 62 134 0
-111 -63 -135 0
111 63 -135 0
111 -63 135 0
-111 63 135 0
-112 -64 -136 0
112 64 -136 0
112 -64 136 0
-112 64 136 0
-113 -65 -137 0
113 65 -137 0
113 -65 137 0
-113 65 137 0
-114 -66 -138 0
114 66 -138 0
114 -66 138 0
-114 66 138 0
-115 -67 -139 0
115 67 -139 0
115 -67 139 0
-115 67 139 0
-116 -68 -140 0
116 68 -140 0
116 -68 140 0
-116 68 140 0
-117 -69 -141 0
117 69 -141 0
117 -69 141 0
-117 69 141 0
-118 -70 -142 0
118 70 -142 0
118 -70 142 0
-118 70 142 0
-119 -71 -143 0
119 71 -143 0
119 -71 143 0
-119 71 143 0
-120 -72 -144 0
120 72 -144 0
120 -72 144 0
-120 72 144 0
-25 -121 -145 0
25 121 -145 0
25 -121 145 0
-25 121 145 0
-26 -122 -146 0
26 122 -146 0
26 -122 146 0
-26 122 146 0
-27 -123 -147 0
27 123 -147 0
27 -123 147 0
-27 123 147 0
-28 -124 -148 0
28 124 -148 0
28 -124 148 0
-28 124 148 0
-29 -125 -149 0
29 125 -149 0
29 -125 149 0
-29 125 149 0
-30 -126 -150 0
30 126 -150 0
30 -126 150 0
-30 126 150 0
-31 -127 -151 0
31 127 -151 0
31 -127 151 0
-31 127 151 0
-32 -128 -152 0
32 128 -152 0
32 -128 152 0
-32 128 152 0
-33 -129 -153 0
33 129 -153 0
33 -129 153 0
-33 129 153 0
-34 -130 -154 0
34 130 -154 0
34 -130 154 0
-34 130 154 0
-35 -131 -155 0
35 131 -155 0
35 -131 155 0
-35 131 155 0
-36 -132 -156 0
36 132 -156 0
36 -132 156 0
-36 132 156 0
-37 -133 -157 0
37 133 -157 0
37 -133 157 0
-37 133 157 0
-38 -134 -158 0
38 134 -158 0
38 -134 158 0
-38 134 158 0
-39 -135 -159 0
39 135 -159 0
39 -135 159 0
-39 135 159 0
-40 -136 -160 0
40 136 -160 0
40 -136 160 0
-40 136 160 0
-41 -137 -161 0
41 137 -161 0
41 -137 161 0
-41 137 161 0
-42 -138 -162 0
42 138 -162 0
42 -138 162 0
-42 138 162 0
-43 -139 -163 0
43 139 -163 0
43 -139 163 0
-43 139 163 0
-44 -140 -164 0
44 140 -164 0
44 -140 164 0
-44 140 164 0
-45 -141 -165 0
45 141 -165 0
45 -141 165 0
-45 141 165 0
-46 -142 -166 0
46 142 -166 0
46 -142 166 0
-46 142 166 0
-47 -143 -167 0
47 143 -167 0
47 -143 167 0
-47 143 167 0
-48 -144 -168 0
48 144 -168 0
48 -144 168 0
-48 144 168 0
-169 145 0
-169 70 0
-145 -70 169 0
-170 146 0
-170 71 0
-146 -71 170 0
-171 147 0
-171 72 0
-147 -72 171 0
-172 148 0
-172 49 0
-148 -49 172 0
-173 149 0
-173 50 0
-149 -50 173 0
-174 150 0
-174 51 0
-150 -51 174 0
-175 151 0
-175 52 0
-151 -52 175 0
-176 152 0
-176 53 0
-152 -53 176 0
-177 153 0
-177 54 0
-153 -54 177 0
-178 154 0
-178 55 0
-154 -55 178 0
-179 155 0
-179 56 0
-155 -56 179 0
-180 156 0
-180 57 0
-156 -57 180 0
-181 157 0
-181 58 0
-157 -58 181 0
-182 158 0
-182 59 0
-158 -59 182 0
-183 159 0
-183 60 0
-159 -60 183 0
-184 160 0
-184 61 0
-160 -61 184 0
-185 161 0
-185 62 0
-161 -62 185 0
-186 162 0
-186 63 0
-162 -63 186 0
-187 163 0
-187 64 0
-163 -64 187 0
-188 164 0
-188 65 0
-164 -65 188 0
-189 165 0
-189 66 0
-165 -66 189 0
-190 166 0
-190 67 0
-166 -67 190 0
-191 167 0
-191 68 0
-167 -68 191 0
-192 168 0
-192 69 0
-168 -69 192 0
-169 -166 -193 0
169 166 -193 0
169 -166 193 0
-169 166 193 0
-170 -167 -194 0
170 167 -194 0
170 -167 194 0
-170 167 194 0
-171 -168 -195 0
171 168 -195 0
171 -168 195 0
-171 168 195 0
-172 -145 -196 0
172 145 -196 0
172 -145 196 0
-172 145 196 0
-173 -146 -197 0
173 146 -197 0
173 -146 197 0
-173 146 197 0
-174 -147 -198 0
174 147 -198 0
174 -147 198 0
-174 147 198 0
-175 -148 -199 0
175 148 -199 0
175 -148 199 0
-175 148 199 0
-176 -149 -200 0
176 149 -200 0
176 -149 200 0
-176 149 200 0
-177 -150 -201 0
177 150 -201 0
177 -150 201 0
-177 150 201 0
-178 -151 -202 0
178 151 -202 0
178 -151 202 0
-178 151 202 0
-179 -152 -203 0
179 152 -203 0
179 -152 203 0
-179 152 203 0
-180 -153 -204 0
180 153 -204 0
180 -153 204 0
-180 153 204 0
-181 -154 -205 0
181 154 -205 0
181 -154 205 0
-181 154 205 0
-182 -155 -206 0
182 155 -206 0
182 -155 206 0
-182 155 206 0
-183 -156 -207 0
183 156 -207 0
183 -156 207 0
-183 156 207 0
-184 -157 -208 0
184 157 -208 0
184 -157 208 0
-184 157 208 0
-185 -158 -209 0
185 158 -209 0
185 -158 209 0
-185 158 209 0
-186 -159 -210 0
186 159 -210 0
186 -159 210 0
-186 159 210 0
-187 -160 -211 0
187 160 -211 0
187 -160 211 0
-187 160 211 0
-188 -161 -212 0
188 161 -212 0
188 -161 212 0
-188 161 212 0
-189 -162 -213 0
189 162 -213 0
189 -162 213 0
-189 162 213 0
-190 -163 -214 0
190 163 -214 0
190 -163 214 0
-190 163 214 0
-191 -164 -215 0
191 164 -215 0
191 -164 215 0
-191 164 215 0
-192 -165 -216 0
192 165 -216 0
192 -165 216 0
-192 165 216 0
-193 -70 -217 0
193 70 -217 0
193 -70 217 0
-193 70 217 0
-194 -71 -218 0
194 71 -218 0
194 -71 218 0
-194 71 218 0
-195 -72 -219 0
195 72 -219 0
195 -72 219 0
-195 72 219 0
-196 -49 -220 0
196 49 -220 0
196 -49 220 0
-196 49 220 0
-197 -50 -221 0
197 50 -221 0
197 -50 221 0
-197 50 221 0
-198 -51 -222 0
198 51 -222 0
198 -51 222 0
-198 51 222 0
-199 -52 -223 0
199 52 -223 0
199 -52 223 0
-199 52 223 0
-200 -53 -224 0
200 53 -224 0
200 -53 224 0
-200 53 224 0
-201 -54 -225 0
201 54 -225 0
201 -54 225 0
-201 54 225 0
-202 -55 -226 0
202 55 -226 0
202 -55 226 0
-202 55 226 0
-203 -56 -227 0
203 56 -227 0
203 -56 227 0
-203 56 227 0
-204 -57 -228 0
204 57 -228 0
204 -57 228 0
-204 57 228 0
-205 -58 -229 0
205 58 -229 0
205 -58 229 0
-205 58 229 0
-206 -59 -230 0
206 59 -230 0
206 -59 230 0
-206 59 230 0
-207 -60 -231 0
207 60 -231 0
207 -60 231 0
-207 60 231 0
-208 -61 -232 0
208 61 -232 0
208 -61 232 0
-208 61 232 0
-209 -62 -233 0
209 62 -233 0
209 -62 233 0
-209 62 233 0
-210 -63 -234 0
210 63 -234 0
210 -63 234 0
-210 63 234 0
-211 -64 -235 0
211 64 -235 0
211 -64 235 0
-211 64 235 0
-212 -65 -236 0
212 65 -236 0
212 -65 236 0
-212 65 236 0
-213 -66 -237 0
213 66 -237 0
213 -66 237 0
-213 66 237 0
-214 -67 -238 0
214 67 -238 0
214 -67 238 0
-214 67 238 0
-215 -68 -239 0
215 68 -239 0
215 -68 239 0
-215 68 239 0
-216 -69 -240 0
216 69 -240 0
216 -69 240 0
-216 69 240 0
-1 -217 -241 0
1 217 -241 0
1 -217 241 0
-1 217 241 0
-2 -218 -242 0
2 218 -242 0
2 -218 242 0
-2 218 242 0
-3 -219 -243 0
3 219 -243 0
3 -219 243 0
-3 219 243 0
-4 -220 -244 0
4 220 -244 0
4 -220 244 0
-4 220 244 0
-5 -221 -245 0
5 221 -245 0
5 -221 245 0
-5 221 245 0
-6 -222 -246 0
6 222 -246 0
6 -222 246 0
-6 222 246 0
-7 -223 -247 0
7 223 -247 0
7 -223 247 0
-7 223 247 0
-8 -224 -248 0
8 224 -248 0
8 -224 248 0
-8 224 248 0
-9 -225 -249 0
9 225 -249 0
9 -225 249 0
-9 225 249 0
-10 -226 -250 0
10 226 -250 0
10 -226 250 0
-10 226 250 0
-11 -227 -251 0
11 227 -251 0
11 -227 251 0
-11 227 251 0
-12 -228 -252 0
12 228 -252 0
12 -228 252 0
-12 228 252 0
-13 -229 -253 0
13 229 -253 0
13 -229 253 0
-13 229 253 0
-14 -230 -254 0
14 230 -254 0
14 -230 254 0
-14 230 254 0
-15 -231 -255 0
15 231 -255 0
15 -231 255 0
-15 231 255 0
-16 -232 -256 0
16 232 -256 0
16 -232 256 0
-16 232 256 0
-17 -233 -257 0
17 233 -257 0
17 -233 257 0
-17 233 257 0
-18 -234 -258 0
18 234 -258 0
18 -234 258 0
-18 234 258 0
-19 -235 -259 0
19 235 -259 0
19 -235 259 0
-19 235 259 0
-20 -236 -260 0
20 236 -260 0
20 -236 260 0
-20 236 260 0
-21 -237 -261 0
21 237 -261 0
21 -237 261 0
-21 237 261 0
-22 -238 -262 0
22 238 -262 0
22 -238 262 0
-22 238 262 0
-23 -239 -263 0
23 239 -263 0
23 -239 263 0
-23 239 263 0
-24 -240 -264 0
24 240 -264 0
24 -240 264 0
-24 240 264 0
-265 241 0
-265 67 0
-241 -67 265 0
-266 242 0
-266 68 0
-242 -68 266 0
-267 243 0
-267 69 0
-243 -69 267 0
-268 244 0
-268 70 0
-244 -70 268 0
-269 245 0
-269 71 0
-245 -71 269 0
-270 246 0
-270 72 0
-246 -72 270 0
-271 247 0
-271 49 0
-247 -49 271 0
-272 248 0
-272 50 0
-248 -50 272 0
-273 249 0
-273 51 0
-249 -51 273 0
-274 250 0
-274 52 0
-250 -52 274 0
-275 251 0
-275 53 0
-251 -53 275 0
-276 252 0
-276 54 0
-252 -54 276 0
-277 253 0
-277 55 0
-253 -55 277 0
-278 254 0
-278 56 0
-254 -56 278 0
-279 255 0
-279 57 0
-255 -57 279 0
-280 256 0
-280 58 0
-256 -58 280 0
-281 257 0
-281 59 0
-257 -59 281 0
-282 258 0
-282 60 0
-258 -60 282 0
-283 259 0
-283 61 0
-259 -61 283 0
-284 260 0
-284 62 0
-260 -62 284 0
-285 261 0
-285 63 0
-261 -63 285 0
-286 262 0
-286 64 0
-262 -64 286 0
-287 263 0
-287 65 0
-263 -65 287 0
-288 264 0
-288 66 0
-264 -66 288 0
-265 -262 -289 0
265 262 -289 0
265 -262 289 0
-265 262 289 0
-266 -263 -290 0
266 263 -290 0
266 -263 290 0
-266 263 290 0
-267 -264 -291 0
267 264 -291 0
267 -264 291 0
-267 264 291 0
-268 -241 -292 0
268 241 -292 0
268 -241 292 0
-268 241 292 0
-269 -242 -293 0
269 242 -293 0
269 -242 293 0
-269 242 293 0
-270 -243 -294 0
270 243 -294 0
270 -243 294 0
-270 243 294 0
-271 -244 -295 0
271 244 -295 0
271 -244 295 0
-271 244 295 0
-272 -245 -296 0
272 245 -296 0
272 -245 296 0
-272 245 296 0
-273 -246 -297 0
273 246 -297 0
273 -246 297 0
-273 246 297 0
-274 -247 -298 0
274 247 -298 0
274 -247 298 0
-274 247 298 0
-275 -248 -299 0
275 248 -299 0
275 -248 299 0
-275 248 299 0
-276 -249 -300 0
276 249 -300 0
276 -249 300 0
-276 249 300 0
-277 -250 -301 0
277 250 -301 0
277 -250 301 0
-277 250 301 0
-278 -251 -302 0
278 251 -302 0
278 -251 302 0
-278 251 302 0
-279 -252 -303 0
279 252 -303 0
279 -252 303 0
-279 252 303 0
-280 -253 -304 0
280 253 -304 0
280 -253 304 0
-280 253 304 0
-281 -254 -305 0
281 254 -305 0
281 -254 305 0
-281 254 305 0
-282 -255 -306 0
282 255 -306 0
282 -255 306 0
-282 255 306 0
-283 -256 -307 0
283 256 -307 0
283 -256 307 0
-283 256 307 0
-284 -257 -308 0
284 257 -308 0
284 -257 308 0
-284 257 308 0
-285 -258 -309 0
285 258 -309 0
285 -258 309 0
-285 258 309 0
-286 -259 -310 0
286 259 -310 0
286 -259 310 0
-286 259 310 0
-287 -260 -311 0
287 260 -311 0
287 -260 311 0
-287 260 311 0
-288 -261 -312 0
288 261 -312 0
288 -261 312 0
-288 261 312 0
-289 -67 -313 0
289 67 -313 0
289 -67 313 0
-289 67 313 0
-290 -68 -314 0
290 68 -314 0
290 -68 314 0
-290 68 314 0
-291 -69 -315 0
291 69 -315 0
291 -69 315 0
-291 69 315 0
-292 -70 -316 0
292 70 -316 0
292 -70 316 0
-292 70 316 0
-293 -71 -317 0
293 71 -317 0
293 -71 317 0
-293 71 317 0
-294 -72 -318 0
294 72 -318 0
294 -72 318 0
-294 72 318 0
-295 -49 -319 0
295 49 -319 0
295 -49 319 0
-295 49 319 0
-296 -50 -320 0
296 50 -320 0
296 -50 320 0
-296 50 320 0
-297 -51 -321 0
297 51 -321 0
297 -51 321 0
-297 51 321 0
-298 -52 -322 0
298 52 -322 0
298 -52 322 0
-298 52 322 0
-299 -53 -323 0
299 53 -323 0
299 -53 323 0
-299 53 323 0
-300 -54 -324 0
300 54 -324 0
300 -54 324 0
-300 54 324 0
-301 -55 -325 0
301 55 -325 0
301 -55 325 0
-301 55 325 0
-302 -56 -326 0
302 56 -326 0
302 -56 326 0
-302 56 326 0
-303 -57 -327 0
303 57 -327 0
303 -57 327 0
-303 57 327 0
-304 -58 -328 0
304 58 -328 0
304 -58 328 0
-304 58 328 0
-305 -59 -329 0
305 59 -329 0
305 -59 329 0
-305 59 329 0
-306 -60 -330 0
306 60 -330 0
306 -60 330 0
-306 60 330 0
-307 -61 -331 0
307 61 -331 0
307 -61 331 0
-307 61 331 0
-308 -62 -332 0
308 62 -332 0
308 -62 332 0
-308 62 332 0
-309 -63 -333 0
309 63 -333 0
309 -63 333 0
-309 63 333 0
-310 -64 -334 0
310 64 -334 0
310 -64 334 0
-310 64 334 0
-311 -65 -335 0
311 65 -335 0
311 -65 335 0
-311 65 335 0
-312 -66 -336 0
312 66 -336 0
312 -66 336 0
-312 66 336 0
-145 -313 -337 0
145 313 -337 0
145 -313 337 0
-145 313 337 0
-146 -314 -338 0
146 314 -338 0
146 -314 338 0
-146 314 338 0
-147 -315 -339 0
147 315 -339 0
147 -315 339 0
-147 315 339 0
-148 -316 -340 0
148 316 -340 0
148 -316 340 0
-148 316 340 0
-149 -317 -341 0
149 317 -341 0
149 -317 341 0
-149 317 341 0
-150 -318 -342 0
150 318 -342 0
150 -318 342 0
-150 318 342 0
-151 -319 -343 0
151 319 -343 0
151 -319 343 0
-151 319 343 0
-152 -320 -344 0
152 320 -344 0
152 -320 344 0
-152 320 344 0
-153 -321 -345 0
153 321 -345 0
153 -321 345 0
-153 321 345 0
-154 -322 -346 0
154 322 -346 0
154 -322 346 0
-154 322 346 0
-155 -323 -347 0
155 323 -347 0
155 -323 347 0
-155 323 347 0
-156 -324 -348 0
156 324 -348 0
156 -324 348 0
-156 324 348 0
-157 -325 -349 0
157 325 -349 0
157 -325 349 0
-157 325 349 0
-158 -326 -350 0
158 326 -350 0
158 -326 350 0
-158 326 350 0
-159 -327 -351 0
159 327 -351 0
159 -327 351 0
-159 327 351 0
-160 -328 -352 0
160 328 -352 0
160 -328 352 0
-160 328 352 0
-161 -329 -353 0
161 329 -353 0
161 -329 353 0
-161 329 353 0
-162 -330 -354 0
162 330 -354 0
162 -330 354 0
-162 330 354 0
-163 -331 -355 0
163 331 -355 0
163 -331 355 0
-163 331 355 0
-164 -332 -356 0
164 332 -356 0
164 -332 356 0
-164 332 356 0
-165 -333 -357 0
165 333 -357 0
165 -333 357 0
-165 333 357 0
-166 -334 -358 0
166 334 -358 0
166 -334 358 0
-166 334 358 0
-167 -335 -359 0
167 335 -359 0
167 -335 359 0
-167 335 359 0
-168 -336 -360 0
168 336 -360 0
168 -336 360 0
-168 336 360 0
-361 337 0
-361 64 0
-337 -64 361 0
-362 338 0
-362 65 0
-338 -65 362 0
-363 339 0
-363 66 0
-339 -66 363 0
-364 340 0
-364 67 0
-340 -67 364 0
-365 341 0
-365 68 0
-341 -68 365 0
-366 342 0
-366 69 0
-342 -69 366 0
-367 343 0
-367 70 0
-343 -70 367 0
-368 344 0
-368 71 0
-344 -71 368 0
-369 345 0
-369 72 0
-345 -72 369 0
-370 346 0
-370 49 0
-346 -49 370 0
-371 347 0
-371 50 0
-347 -50 371 0
-372 348 0
-372 51 0
-348 -51 372 0
-373 349 0
-373 52 0
-349 -52 373 0
-374 350 0
-374 53 0
-350 -53 374 0
-375 351 0
-375 54 0
-351 -54 375 0
-376 352 0
-376 55 0
-352 -55 376 0
-377 353 0
-377 56 0
-353 -56 377 0
-378 354 0
-378 57 0
-354 -57 378 0
-379 355 0
-379 58 0
-355 -58 379 0
-380 356 0
-380 59 0
-356 -59 380 0
-381 357 0
-381 60 0
-357 -60 381 0
-382 358 0
-382 61 0
-358 -61 382 0
-383 359 0
-383 62 0
-359 -62 383 0
-384 360 0
-384 63 0
-360 -63 384 0
-361 -358 -385 0
361 358 -385 0
361 -358 385 0
-361 358 385 0
-362 -359 -386 0
362 359 -386 0
362 -359 386 0
-362 359 386 0
-363 -360 -387 0
363 360 -387 0
363 -360 387 0
-363 360 387 0
-364 -337 -388 0
364 337 -388 0
364 -337 388 0
-364 337 388 0
-365 -338 -389 0
365 338 -389 0
365 -338 389 0
-365 338 389 0
-366 -339 -390 0
366 339 -390 0
366 -339 390 0
-366 339 390 0
-367 -340 -391 0
367 340 -391 0
367 -340 391 0
-367 340 391 0
-368 -341 -392 0
368 341 -392 0
368 -341 392 0
-368 341 392 0
-369 -342 -393 0
369 342 -393 0
369 -342 393 0
-369 342 393 0
-370 -343 -394 0
370 343 -394 0
370 -343 394 0
-370 343 394 0
-371 -344 -395 0
371 344 -395 0
371 -344 395 0
-371 344 395 0
-372 -345 -396 0
372 345 -396 0
372 -345 396 0
-372 345 396 0
-373 -346 -397 0
373 346 -397 0
373 -346 397 0
-373 346 397 0
-374 -347 -398 0
374 347 -398 0
374 -347 398 0
-374 347 398 0
-375 -348 -399 0
375 348 -399 0
375 -348 399 0
-375 348 399 0
-376 -349 -400 0
376 349 -400 0
376 -349 400 0
-376 349 400 0
-377 -350 -401 0
377 350 -401 0
377 -350 401 0
-377 350 401 0
-378 -351 -402 0
378 351 -402 0
378 -351 402 0
-378 351 402 0
-379 -352 -403 0
379 352 -403 0
379 -352 403 0
-379 352 403 0
-380 -353 -404 0
380 353 -404 0
380 -353 404 0
-380 353 404 0
-381 -354 -405 0
381 354 -405 0
381 -354 405 0
-381 354 405 0
-382 -355 -406 0
382 355 -406 0
382 -355 406 0
-382 355 406 0
-383 -356 -407 0
383 356 -407 0
383 -356 407 0
-383 356 407 0
-384 -357 -408 0
384 357 -408 0
384 -357 408 0
-384 357 408 0
-385 -64 -409 0
385 64 -409 0
385 -64 409 0
-385 64 409 0
-386 -65 -410 0
386 65 -410 0
386 -65 410 0
-386 65 410 0
-387 -66 -411 0
387 66 -411 0
387 -66 411 0
-387 66 411 0
-388 -67 -412 0
388 67 -412 0
388 -67 412 0
-388 67 412 0
-389 -68 -413 0
389 68 -413 0
389 -68 413 0
-389 68 413 0
-390 -69 -414 0
390 69 -414 0
390 -69 414 0
-390 69 414 0
-391 -70 -415 0
391 70 -415 0
391 -70 415 0
-391 70 415 0
-392 -71 -416 0
392 71 -416 0
392 -71 416 0
-392 71 416 0
-393 -72 -417 0
393 72 -417 0
393 -72 417 0
-393 72 417 0
-394 -49 -418 0
394 49 -418 0
394 -49 418 0
-394 49 418 0
-395 -50 -419 0
395 50 -419 0
395 -50 419 0
-395 50 419 0
-396 -51 -420 0
396 51 -420 0
396 -51 420 0
-396 51 420 0
-397 -52 -421 0
397 52 -421 0
397 -52 421 0
-397 52 421 0
-398 -53 -422 0
398 53 -422 0
398 -53 422 0
-398 53 422 0
-399 -54 -423 0
399 54 -423 0
399 -54 423 0
-399 54 423 0
-400 -55 -424 0
400 55 -424 0
400 -55 424 0
-400 55 424 0
-401 -56 -425 0
401 56 -425 0
401 -56 425 0
-401 56 425 0
-402 -57 -426 0
402 57 -426 0
402 -57 426 0
-402 57 426 0
-403 -58 -427 0
403 58 -427 0
403 -58 427 0
-403 58 427 0
-404 -59 -428 0
404 59 -428 0
404 -59 428 0
-404 59 428 0
-405 -60 -429 0
405 60 -429 0
405 -60 429 0
-405 60 429 0
-406 -61 -430 0
406 61 -430 0
406 -61 430 0
-406 61 430 0
-407 -62 -431 0
407 62 -431 0
407 -62 431 0
-407 62 431 0
-408 -63 -432 0
408 63 -432 0
408 -63 432 0
-408 63 432 0
-241 -409 -433 0
241 409 -433 0
241 -409 433 0
-241 409 433 0
-242 -410 -434 0
242 410 -434 0
242 -410 434 0
-242 410 434 0
-243 -411 -435 0
243 411 -435 0
243 -411 435 0
-243 411 435 0
-244 -412 -436 0
244 412 -436 0
244 -412 436 0
-244 412 436 0
-245 -413 -437 0
245 413 -437 0
245 -413 437 0
-245 413 437 0
-246 -414 -438 0
246 414 -438 0
246 -414 438 0
-246 414 438 0
-247 -415 -439 0
247 415 -439 0
247 -415 439 0
-247 415 439 0
-248 -416 -440 0
248 416 -440 0
248 -416 440 0
-248 416 440 0
-249 -417 -441 0
249 417 -441 0
249 -417 441 0
-249 417 441 0
-250 -418 -442 0
250 418 -442 0
250 -418 442 0
-250 418 442 0
-251 -419 -443 0
251 419 -443 0
251 -419 443 0
-251 419 443 0
-252 -420 -444 0
252 420 -444 0
252 -420 444 0
-252 420 444 0
-253 -421 -445 0
253 421 -445 0
253 -421 445 0
-253 421 445 0
-254 -422 -446 0
254 422 -446 0
254 -422 446 0
-254 422 446 0
-255 -423 -447 0
255 423 -447 0
255 -423 447 0
-255 423 447 0
-256 -424 -448 0
256 424 -448 0
256 -424 448 0
-256 424 448 0
-257 -425 -449 0
257 425 -449 0
257 -425 449 0
-257 425 449 0
-258 -426 -450 0
258 426 -450 0
258 -426 450 0
-258 426 450 0
-259 -427 -451 0
259 427 -451 0
259 -427 451 0
-259 427 451 0
-260 -428 -452 0
260 428 -452 0
260 -428 452 0
-260 428 452 0
-261 -429 -453 0
261 429 -453 0
261 -429 453 0
-261 429 453 0
-262 -430 -454 0
262 430 -454 0
262 -430 454 0
-262 430 454 0
-263 -431 -455 0
263 431 -455 0
263 -431 455 0
-263 431 455 0
-264 -432 -456 0
264 432 -456 0
264 -432 456 0
-264 432 456 0
-1 0
2 0
-3 0
-4 0
-5 0
6 0
-7 0
8 0
-9 0
-10 0
11 0
-12 0
-13 0
14 0
-15 0
-16 0
17 0
18 0
19 0
-20 0
-21 0
22 0
-23 0
-24 0
-25 0
26 0
-27 0
-28 0
-29 0
30 0
-31 0
-32 0
33 0
34 0
-35 0
-36 0
-37 0
38 0
39 0
-40 0
41 0
42 0
43 0
-44 0
45 0
46 0
47 0
-48 0
-433 0
-434 0
435 0
436 0
-437 0
438 0
-439 0
-440 0
-441 0
442 0
-443 0
-444 0
-445 0
446 0
-447 0
-448 0
-449 0
-450 0
-451 0
452 0
-453 0
-454 0
455 0
-456 0
337 0
-338 0
339 0
340 0
-341 0
342 0
343 0
344 0
345 0
-346 0
347 0
-348 0
-349 0
350 0
351 0
352 0
-353 0
354 0
355 0
356 0
357 0
358 0
359 0
-360 0
