c Feistel cipher key recovery — XOR-heavy crypto benchmark
c block_size=32 key_size=16 rounds=4 seed=42
c plaintext=0x222724a2 key=0x517d ciphertext=0xe4af2107
c vars=304 clauses=1024
c Expected: SATISFIABLE (key recovery)
p cnf 304 1024
-49 1 0
-49 33 0
-1 -33 49 0
-50 2 0
-50 34 0
-2 -34 50 0
-51 3 0
-51 35 0
-3 -35 51 0
-52 4 0
-52 36 0
-4 -36 52 0
-53 5 0
-53 37 0
-5 -37 53 0
-54 6 0
-54 38 0
-6 -38 54 0
-55 7 0
-55 39 0
-7 -39 55 0
-56 8 0
-56 40 0
-8 -40 56 0
-57 9 0
-57 41 0
-9 -41 57 0
-58 10 0
-58 42 0
-10 -42 58 0
-59 11 0
-59 43 0
-11 -43 59 0
-60 12 0
-60 44 0
-12 -44 60 0
-61 13 0
-61 45 0
-13 -45 61 0
-62 14 0
-62 46 0
-14 -46 62 0
-63 15 0
-63 47 0
-15 -47 63 0
-64 16 0
-64 48 0
-16 -48 64 0
-49 -14 -65 0
49 14 -65 0
49 -14 65 0
-49 14 65 0
-50 -15 -66 0
50 15 -66 0
50 -15 66 0
-50 15 66 0
-51 -16 -67 0
51 16 -67 0
51 -16 67 0
-51 16 67 0
-52 -1 -68 0
52 1 -68 0
52 -1 68 0
-52 1 68 0
-53 -2 -69 0
53 2 -69 0
53 -2 69 0
-53 2 69 0
-54 -3 -70 0
54 3 -70 0
54 -3 70 0
-54 3 70 0
-55 -4 -71 0
55 4 -71 0
55 -4 71 0
-55 4 71 0
-56 -5 -72 0
56 5 -72 0
56 -5 72 0
-56 5 72 0
-57 -6 -73 0
57 6 -73 0
57 -6 73 0
-57 6 73 0
-58 -7 -74 0
58 7 -74 0
58 -7 74 0
-58 7 74 0
-59 -8 -75 0
59 8 -75 0
59 -8 75 0
-59 8 75 0
-60 -9 -76 0
60 9 -76 0
60 -9 76 0
-60 9 76 0
-61 -10 -77 0
61 10 -77 0
61 -10 77 0
-61 10 77 0
-62 -11 -78 0
62 11 -78 0
62 -11 78 0
-62 11 78 0
-63 -12 -79 0
63 12 -79 0
63 -12 79 0
-63 12 79 0
-64 -13 -80 0
64 13 -80 0
64 -13 80 0
-64 13 80 0
-65 -33 -81 0
65 33 -81 0
65 -33 81 0
-65 33 81 0
-66 -34 -82 0
66 34 -82 0
66 -34 82 0
-66 34 82 0
-67 -35 -83 0
67 35 -83 0
67 -35 83 0
-67 35 83 0
-68 -36 -84 0
68 36 -84 0
68 -36 84 0
-68 36 84 0
-69 -37 -85 0
69 37 -85 0
69 -37 85 0
-69 37 85 0
-70 -38 -86 0
70 38 -86 0
70 -38 86 0
-70 38 86 0
-71 -39 -87 0
71 39 -87 0
71 -39 87 0
-71 39 87 0
-72 -40 -88 0
72 40 -88 0
72 -40 88 0
-72 40 88 0
-73 -41 -89 0
73 41 -89 0
73 -41 89 0
-73 41 89 0
-74 -42 -90 0
74 42 -90 0
74 -42 90 0
-74 42 90 0
-75 -43 -91 0
75 43 -91 0
75 -43 91 0
-75 43 91 0
-76 -44 -92 0
76 44 -92 0
76 -44 92 0
-76 44 92 0
-77 -45 -93 0
77 45 -93 0
77 -45 93 0
-77 45 93 0
-78 -46 -94 0
78 46 -94 0
78 -46 94 0
-78 46 94 0
-79 -47 -95 0
79 47 -95 0
79 -47 95 0
-79 47 95 0
-80 -48 -96 0
80 48 -96 0
80 -48 96 0
-80 48 96 0
-17 -81 -97 0
17 81 -97 0
17 -81 97 0
-17 81 97 0
-18 -82 -98 0
18 82 -98 0
18 -82 98 0
-18 82 98 0
-19 -83 -99 0
19 83 -99 0
19 -83 99 0
-19 83 99 0
-20 -84 -100 0
20 84 -100 0
20 -84 100 0
-20 84 100 0
-21 -85 -101 0
21 85 -101 0
21 -85 101 0
-21 85 101 0
-22 -86 -102 0
22 86 -102 0
22 -86 102 0
-22 86 102 0
-23 -87 -103 0
23 87 -103 0
23 -87 103 0
-23 87 103 0
-24 -88 -104 0
24 88 -104 0
24 -88 104 0
-24 88 104 0
-25 -89 -105 0
25 89 -105 0
25 -89 105 0
-25 89 105 0
-26 -90 -106 0
26 90 -106 0
26 -90 106 0
-26 90 106 0
-27 -91 -107 0
27 91 -107 0
27 -91 107 0
-27 91 107 0
-28 -92 -108 0
28 92 -108 0
28 -92 108 0
-28 92 108 0
-29 -93 -109 0
29 93 -109 0
29 -93 109 0
-29 93 109 0
-30 -94 -110 0
30 94 -110 0
30 -94 110 0
-30 94 110 0
-31 -95 -111 0
31 95 -111 0
31 -95 111 0
-31 95 111 0
-32 -96 -112 0
32 96 -112 0
32 -96 112 0
-32 96 112 0
-113 97 0
-113 46 0
-97 -46 113 0
-114 98 0
-114 47 0
-98 -47 114 0
-115 99 0
-115 48 0
-99 -48 115 0
-116 100 0
-116 33 0
-100 -33 116 0
-117 101 0
-117 34 0
-101 -34 117 0
-118 102 0
-118 35 0
-102 -35 118 0
-119 103 0
-119 36 0
-103 -36 119 0
-120 104 0
-120 37 0
-104 -37 120 0
-121 105 0
-121 38 0
-105 -38 121 0
-122 106 0
-122 39 0
-106 -39 122 0
-123 107 0
-123 40 0
-107 -40 123 0
-124 108 0
-124 41 0
-108 -41 124 0
-125 109 0
-125 42 0
-109 -42 125 0
-126 110 0
-126 43 0
-110 -43 126 0
-127 111 0
-127 44 0
-111 -44 127 0
-128 112 0
-128 45 0
-112 -45 128 0
-113 -110 -129 0
113 110 -129 0
113 -110 129 0
-113 110 129 0
-114 -111 -130 0
114 111 -130 0
114 -111 130 0
-114 111 130 0
-115 -112 -131 0
115 112 -131 0
115 -112 131 0
-115 112 131 0
-116 -97 -132 0
116 97 -132 0
116 -97 132 0
-116 97 132 0
-117 -98 -133 0
117 98 -133 0
117 -98 133 0
-117 98 133 0
-118 -99 -134 0
118 99 -134 0
118 -99 134 0
-118 99 134 0
-119 -100 -135 0
119 100 -135 0
119 -100 135 0
-119 100 135 0
-120 -101 -136 0
120 101 -136 0
120 -101 136 0
-120 101 136 0
-121 -102 -137 0
121 102 -137 0
121 -102 137 0
-121 102 137 0
-122 -103 -138 0
122 103 -138 0
122 -103 138 0
-122 103 138 0
-123 -104 -139 0
123 104 -139 0
123 -104 139 0
-123 104 139 0
-124 -105 -140 0
124 105 -140 0
124 -105 140 0
-124 105 140 0
-125 -106 -141 0
125 106 -141 0
125 -106 141 0
-125 106 141 0
-126 -107 -142 0
126 107 -142 0
126 -107 142 0
-126 107 142 0
-127 -108 -143 0
127 108 -143 0
127 -108 143 0
-127 108 143 0
-128 -109 -144 0
128 109 -144 0
128 -109 144 0
-128 109 144 0
-129 -46 -145 0
129 46 -145 0
129 -46 145 0
-129 46 145 0
-130 -47 -146 0
130 47 -146 0
130 -47 146 0
-130 47 146 0
-131 -48 -147 0
131 48 -147 0
131 -48 147 0
-131 48 147 0
-132 -33 -148 0
132 33 -148 0
132 -33 148 0
-132 33 148 0
-133 -34 -149 0
133 34 -149 0
133 -34 149 0
-133 34 149 0
-134 -35 -150 0
134 35 -150 0
134 -35 150 0
-134 35 150 0
-135 -36 -151 0
135 36 -151 0
135 -36 151 0
-135 36 151 0
-136 -37 -152 0
136 37 -152 0
136 -37 152 0
-136 37 152 0
-137 -38 -153 0
137 38 -153 0
137 -38 153 0
-137 38 153 0
-138 -39 -154 0
138 39 -154 0
138 -39 154 0
-138 39 154 0
-139 -40 -155 0
139 40 -155 0
139 -40 155 0
-139 40 155 0
-140 -41 -156 0
140 41 -156 0
140 -41 156 0
-140 41 156 0
-141 -42 -157 0
141 42 -157 0
141 -42 157 0
-141 42 157 0
-142 -43 -158 0
142 43 -158 0
142 -43 158 0
-142 43 158 0
-143 -44 -159 0
143 44 -159 0
143 -44 159 0
-143 44 159 0
-144 -45 -160 0
144 45 -160 0
144 -45 160 0
-144 45 160 0
-1 -145 -161 0
1 145 -161 0
1 -145 161 0
-1 145 161 0
-2 -146 -162 0
2 146 -162 0
2 -146 162 0
-2 146 162 0
-3 -147 -163 0
3 147 -163 0
3 -147 163 0
-3 147 163 0
-4 -148 -164 0
4 148 -164 0
4 -148 164 0
-4 148 164 0
-5 -149 -165 0
5 149 -165 0
5 -149 165 0
-5 149 165 0
-6 -150 -166 0
6 150 -166 0
6 -150 166 0
-6 150 166 0
-7 -151 -167 0
7 151 -167 0
7 -151 167 0
-7 151 167 0
-8 -152 -168 0
8 152 -168 0
8 -152 168 0
-8 152 168 0
-9 -153 -169 0
9 153 -169 0
9 -153 169 0
-9 153 169 0
-10 -154 -170 0
10 154 -170 0
10 -154 170 0
-10 154 170 0
-11 -155 -171 0
11 155 -171 0
11 -155 171 0
-11 155 171 0
-12 -156 -172 0
12 156 -172 0
12 -156 172 0
-12 156 172 0
-13 -157 -173 0
13 157 -173 0
13 -157 173 0
-13 157 173 0
-14 -158 -174 0
14 158 -174 0
14 -158 174 0
-14 158 174 0
-15 -159 -175 0
15 159 -175 0
15 -159 175 0
-15 159 175 0
-16 -160 -176 0
16 160 -176 0
16 -160 176 0
-16 160 176 0
-177 161 0
-177 43 0
-161 -43 177 0
-178 162 0
-178 44 0
-162 -44 178 0
-179 163 0
-179 45 0
-163 -45 179 0
-180 164 0
-180 46 0
-164 -46 180 0
-181 165 0
-181 47 0
-165 -47 181 0
-182 166 0
-182 48 0
-166 -48 182 0
-183 167 0
-183 33 0
-167 -33 183 0
-184 168 0
-184 34 0
-168 -34 184 0
-185 169 0
-185 35 0
-169 -35 185 0
-186 170 0
-186 36 0
-170 -36 186 0
-187 171 0
-187 37 0
-171 -37 187 0
-188 172 0
-188 38 0
-172 -38 188 0
-189 173 0
-189 39 0
-173 -39 189 0
-190 174 0
-190 40 0
-174 -40 190 0
-191 175 0
-191 41 0
-175 -41 191 0
-192 176 0
-192 42 0
-176 -42 192 0
-177 -174 -193 0
177 174 -193 0
177 -174 193 0
-177 174 193 0
-178 -175 -194 0
178 175 -194 0
178 -175 194 0
-178 175 194 0
-179 -176 -195 0
179 176 -195 0
179 -176 195 0
-179 176 195 0
-180 -161 -196 0
180 161 -196 0
180 -161 196 0
-180 161 196 0
-181 -162 -197 0
181 162 -197 0
181 -162 197 0
-181 162 197 0
-182 -163 -198 0
182 163 -198 0
182 -163 198 0
-182 163 198 0
-183 -164 -199 0
183 164 -199 0
183 -164 199 0
-183 164 199 0
-184 -165 -200 0
184 165 -200 0
184 -165 200 0
-184 165 200 0
-185 -166 -201 0
185 166 -201 0
185 -166 201 0
-185 166 201 0
-186 -167 -202 0
186 167 -202 0
186 -167 202 0
-186 167 202 0
-187 -168 -203 0
187 168 -203 0
187 -168 203 0
-187 168 203 0
-188 -169 -204 0
188 169 -204 0
188 -169 204 0
-188 169 204 0
-189 -170 -205 0
189 170 -205 0
189 -170 205 0
-189 170 205 0
-190 -171 -206 0
190 171 -206 0
190 -171 206 0
-190 171 206 0
-191 -172 -207 0
191 172 -207 0
191 -172 207 0
-191 172 207 0
-192 -173 -208 0
192 173 -208 0
192 -173 208 0
-192 173 208 0
-193 -43 -209 0
193 43 -209 0
193 -43 209 0
-193 43 209 0
-194 -44 -210 0
194 44 -210 0
194 -44 210 0
-194 44 210 0
-195 -45 -211 0
195 45 -211 0
195 -45 211 0
-195 45 211 0
-196 -46 -212 0
196 46 -212 0
196 -46 212 0
-196 46 212 0
-197 -47 -213 0
197 47 -213 0
197 -47 213 0
-197 47 213 0
-198 -48 -214 0
198 48 -214 0
198 -48 214 0
-198 48 214 0
-199 -33 -215 0
199 33 -215 0
199 -33 215 0
-199 33 215 0
-200 -34 -216 0
200 34 -216 0
200 -34 216 0
-200 34 216 0
-201 -35 -217 0
201 35 -217 0
201 -35 217 0
-201 35 217 0
-202 -36 -218 0
202 36 -218 0
202 -36 218 0
-202 36 218 0
-203 -37 -219 0
203 37 -219 0
203 -37 219 0
-203 37 219 0
-204 -38 -220 0
204 38 -220 0
204 -38 220 0
-204 38 220 0
-205 -39 -221 0
205 39 -221 0
205 -39 221 0
-205 39 221 0
-206 -40 -222 0
206 40 -222 0
206 -40 222 0
-206 40 222 0
-207 -41 -223 0
207 41 -223 0
207 -41 223 0
-207 41 223 0
-208 -42 -224 0
208 42 -224 0
208 -42 224 0
-208 42 224 0
-97 -209 -225 0
97 209 -225 0
97 -209 225 0
-97 209 225 0
-98 -210 -226 0
98 210 -226 0
98 -210 226 0
-98 210 226 0
-99 -211 -227 0
99 211 -227 0
99 -211 227 0
-99 211 227 0
-100 -212 -228 0
100 212 -228 0
100 -212 228 0
-100 212 228 0
-101 -213 -229 0
101 213 -229 0
101 -213 229 0
-101 213 229 0
-102 -214 -230 0
102 214 -230 0
102 -214 230 0
-102 214 230 0
-103 -215 -231 0
103 215 -231 0
103 -215 231 0
-103 215 231 0
-104 -216 -232 0
104 216 -232 0
104 -216 232 0
-104 216 232 0
-105 -217 -233 0
105 217 -233 0
105 -217 233 0
-105 217 233 0
-106 -218 -234 0
106 218 -234 0
106 -218 234 0
-106 218 234 0
-107 -219 -235 0
107 219 -235 0
107 -219 235 0
-107 219 235 0
-108 -220 -236 0
108 220 -236 0
108 -220 236 0
-108 220 236 0
-109 -221 -237 0
109 221 -237 0
109 -221 237 0
-109 221 237 0
-110 -222 -238 0
110 222 -238 0
110 -222 238 0
-110 222 238 0
-111 -223 -239 0
111 223 -239 0
111 -223 239 0
-111 223 239 0
-112 -224 -240 0
112 224 -240 0
112 -224 240 0
-112 224 240 0
-241 225 0
-241 40 0
-225 -40 241 0
-242 226 0
-242 41 0
-226 -41 242 0
-243 227 0
-243 42 0
-227 -42 243 0
-244 228 0
-244 43 0
-228 -43 244 0
-245 229 0
-245 44 0
-229 -44 245 0
-246 230 0
-246 45 0
-230 -45 246 0
-247 231 0
-247 46 0
-231 -46 247 0
-248 232 0
-248 47 0
-232 -47 248 0
-249 233 0
-249 48 0
-233 -48 249 0
-250 234 0
-250 33 0
-234 -33 250 0
-251 235 0
-251 34 0
-235 -34 251 0
-252 236 0
-252 35 0
-236 -35 252 0
-253 237 0
-253 36 0
-237 -36 253 0
-254 238 0
-254 37 0
-238 -37 254 0
-255 239 0
-255 38 0
-239 -38 255 0
-256 240 0
-256 39 0
-240 -39 256 0
-241 -238 -257 0
241 238 -257 0
241 -238 257 0
-241 238 257 0
-242 -239 -258 0
242 239 -258 0
242 -239 258 0
-242 239 258 0
-243 -240 -259 0
243 240 -259 0
243 -240 259 0
-243 240 259 0
-244 -225 -260 0
244 225 -260 0
244 -225 260 0
-244 225 260 0
-245 -226 -261 0
245 226 -261 0
245 -226 261 0
-245 226 261 0
-246 -227 -262 0
246 227 -262 0
246 -227 262 0
-246 227 262 0
-247 -228 -263 0
247 228 -263 0
247 -228 263 0
-247 228 263 0
-248 -229 -264 0
248 229 -264 0
248 -229 264 0
-248 229 264 0
-249 -230 -265 0
249 230 -265 0
249 -230 265 0
-249 230 265 0
-250 -231 -266 0
250 231 -266 0
250 -231 266 0
-250 231 266 0
-251 -232 -267 0
251 232 -267 0
251 -232 267 0
-251 232 267 0
-252 -233 -268 0
252 233 -268 0
252 -233 268 0
-252 233 268 0
-253 -234 -269 0
253 234 -269 0
253 -234 269 0
-253 234 269 0
-254 -235 -270 0
254 235 -270 0
254 -235 270 0
-254 235 270 0
-255 -236 -271 0
255 236 -271 0
255 -236 271 0
-255 236 271 0
-256 -237 -272 0
256 237 -272 0
256 -237 272 0
-256 237 272 0
-257 -40 -273 0
257 40 -273 0
257 -40 273 0
-257 40 273 0
-258 -41 -274 0
258 41 -274 0
258 -41 274 0
-258 41 274 0
-259 -42 -275 0
259 42 -275 0
259 -42 275 0
-259 42 275 0
-260 -43 -276 0
260 43 -276 0
260 -43 276 0
-260 43 276 0
-261 -44 -277 0
261 44 -277 0
261 -44 277 0
-261 44 277 0
-262 -45 -278 0
262 45 -278 0
262 -45 278 0
-262 45 278 0
-263 -46 -279 0
263 46 -279 0
263 -46 279 0
-263 46 279 0
-264 -47 -280 0
264 47 -280 0
264 -47 280 0
-264 47 280 0
-265 -48 -281 0
265 48 -281 0
265 -48 281 0
-265 48 281 0
-266 -33 -282 0
266 33 -282 0
266 -33 282 0
-266 33 282 0
-267 -34 -283 0
267 34 -283 0
267 -34 283 0
-267 34 283 0
-268 -35 -284 0
268 35 -284 0
268 -35 284 0
-268 35 284 0
-269 -36 -285 0
269 36 -285 0
269 -36 285 0
-269 36 285 0
-270 -37 -286 0
270 37 -286 0
270 -37 286 0
-270 37 286 0
-271 -38 -287 0
271 38 -287 0
271 -38 287 0
-271 38 287 0
-272 -39 -288 0
272 39 -288 0
272 -39 288 0
-272 39 288 0
-161 -273 -289 0
161 273 -289 0
161 -273 289 0
-161 273 289 0
-162 -274 -290 0
162 274 -290 0
162 -274 290 0
-162 274 290 0
-163 -275 -291 0
163 275 -291 0
163 -275 291 0
-163 275 291 0
-164 -276 -292 0
164 276 -292 0
164 -276 292 0
-164 276 292 0
-165 -277 -293 0
165 277 -293 0
165 -277 293 0
-165 277 293 0
-166 -278 -294 0
166 278 -294 0
166 -278 294 0
-166 278 294 0
-167 -279 -295 0
167 279 -295 0
167 -279 295 0
-167 279 295 0
-168 -280 -296 0
168 280 -296 0
168 -280 296 0
-168 280 296 0
-169 -281 -297 0
169 281 -297 0
169 -281 297 0
-169 281 297 0
-170 -282 -298 0
170 282 -298 0
170 -282 298 0
-170 282 298 0
-171 -283 -299 0
171 283 -299 0
171 -283 299 0
-171 283 299 0
-172 -284 -300 0
172 284 -300 0
172 -284 300 0
-172 284 300 0
-173 -285 -301 0
173 285 -301 0
173 -285 301 0
-173 285 301 0
-174 -286 -302 0
174 286 -302 0
174 -286 302 0
-174 286 302 0
-175 -287 -303 0
175 287 -303 0
175 -287 303 0
-175 287 303 0
-176 -288 -304 0
176 288 -304 0
176 -288 304 0
-176 288 304 0
-1 0
2 0
-3 0
-4 0
-5 0
6 0
-7 0
8 0
-9 0
-10 0
11 0
-12 0
-13 0
14 0
-15 0
-16 0
17 0
18 0
19 0
-20 0
-21 0
22 0
-23 0
-24 0
-25 0
26 0
-27 0
-28 0
-29 0
30 0
-31 0
-32 0
289 0
290 0
291 0
-292 0
-293 0
-294 0
-295 0
-296 0
297 0
-298 0
-299 0
-300 0
-301 0
302 0
-303 0
-304 0
225 0
226 0
227 0
228 0
-229 0
230 0
-231 0
232 0
-233 0
-234 0
235 0
-236 0
-237 0
238 0
239 0
240 0
