c Feistel cipher key recovery — XOR-heavy crypto benchmark
c block_size=64 key_size=32 rounds=4 seed=42
c plaintext=0x0 key=0x3fad517d ciphertext=0x14b90432d2e2dab4
c vars=608 clauses=2048
c Expected: SATISFIABLE (key recovery)
p cnf 608 2048
-97 1 0
-97 65 0
-1 -65 97 0
-98 2 0
-98 66 0
-2 -66 98 0
-99 3 0
-99 67 0
-3 -67 99 0
-100 4 0
-100 68 0
-4 -68 100 0
-101 5 0
-101 69 0
-5 -69 101 0
-102 6 0
-102 70 0
-6 -70 102 0
-103 7 0
-103 71 0
-7 -71 103 0
-104 8 0
-104 72 0
-8 -72 104 0
-105 9 0
-105 73 0
-9 -73 105 0
-106 10 0
-106 74 0
-10 -74 106 0
-107 11 0
-107 75 0
-11 -75 107 0
-108 12 0
-108 76 0
-12 -76 108 0
-109 13 0
-109 77 0
-13 -77 109 0
-110 14 0
-110 78 0
-14 -78 110 0
-111 15 0
-111 79 0
-15 -79 111 0
-112 16 0
-112 80 0
-16 -80 112 0
-113 17 0
-113 81 0
-17 -81 113 0
-114 18 0
-114 82 0
-18 -82 114 0
-115 19 0
-115 83 0
-19 -83 115 0
-116 20 0
-116 84 0
-20 -84 116 0
-117 21 0
-117 85 0
-21 -85 117 0
-118 22 0
-118 86 0
-22 -86 118 0
-119 23 0
-119 87 0
-23 -87 119 0
-120 24 0
-120 88 0
-24 -88 120 0
-121 25 0
-121 89 0
-25 -89 121 0
-122 26 0
-122 90 0
-26 -90 122 0
-123 27 0
-123 91 0
-27 -91 123 0
-124 28 0
-124 92 0
-28 -92 124 0
-125 29 0
-125 93 0
-29 -93 125 0
-126 30 0
-126 94 0
-30 -94 126 0
-127 31 0
-127 95 0
-31 -95 127 0
-128 32 0
-128 96 0
-32 -96 128 0
-97 -30 -129 0
97 30 -129 0
97 -30 129 0
-97 30 129 0
-98 -31 -130 0
98 31 -130 0
98 -31 130 0
-98 31 130 0
-99 -32 -131 0
99 32 -131 0
99 -32 131 0
-99 32 131 0
-100 -1 -132 0
100 1 -132 0
100 -1 132 0
-100 1 132 0
-101 -2 -133 0
101 2 -133 0
101 -2 133 0
-101 2 133 0
-102 -3 -134 0
102 3 -134 0
102 -3 134 0
-102 3 134 0
-103 -4 -135 0
103 4 -135 0
103 -4 135 0
-103 4 135 0
-104 -5 -136 0
104 5 -136 0
104 -5 136 0
-104 5 136 0
-105 -6 -137 0
105 6 -137 0
105 -6 137 0
-105 6 137 0
-106 -7 -138 0
106 7 -138 0
106 -7 138 0
-106 7 138 0
-107 -8 -139 0
107 8 -139 0
107 -8 139 0
-107 8 139 0
-108 -9 -140 0
108 9 -140 0
108 -9 140 0
-108 9 140 0
-109 -10 -141 0
109 10 -141 0
109 -10 141 0
-109 10 141 0
-110 -11 -142 0
110 11 -142 0
110 -11 142 0
-110 11 142 0
-111 -12 -143 0
111 12 -143 0
111 -12 143 0
-111 12 143 0
-112 -13 -144 0
112 13 -144 0
112 -13 144 0
-112 13 144 0
-113 -14 -145 0
113 14 -145 0
113 -14 145 0
-113 14 145 0
-114 -15 -146 0
114 15 -146 0
114 -15 146 0
-114 15 146 0
-115 -16 -147 0
115 16 -147 0
115 -16 147 0
-115 16 147 0
-116 -17 -148 0
116 17 -148 0
116 -17 148 0
-116 17 148 0
-117 -18 -149 0
117 18 -149 0
117 -18 149 0
-117 18 149 0
-118 -19 -150 0
118 19 -150 0
118 -19 150 0
-118 19 150 0
-119 -20 -151 0
119 20 -151 0
119 -20 151 0
-119 20 151 0
-120 -21 -152 0
120 21 -152 0
120 -21 152 0
-120 21 152 0
-121 -22 -153 0
121 22 -153 0
121 -22 153 0
-121 22 153 0
-122 -23 -154 0
122 23 -154 0
122 -23 154 0
-122 23 154 0
-123 -24 -155 0
123 24 -155 0
123 -24 155 0
-123 24 155 0
-124 -25 -156 0
124 25 -156 0
124 -25 156 0
-124 25 156 0
-125 -26 -157 0
125 26 -157 0
125 -26 157 0
-125 26 157 0
-126 -27 -158 0
126 27 -158 0
126 -27 158 0
-126 27 158 0
-127 -28 -159 0
127 28 -159 0
127 -28 159 0
-127 28 159 0
-128 -29 -160 0
128 29 -160 0
128 -29 160 0
-128 29 160 0
-129 -65 -161 0
129 65 -161 0
129 -65 161 0
-129 65 161 0
-130 -66 -162 0
130 66 -162 0
130 -66 162 0
-130 66 162 0
-131 -67 -163 0
131 67 -163 0
131 -67 163 0
-131 67 163 0
-132 -68 -164 0
132 68 -164 0
132 -68 164 0
-132 68 164 0
-133 -69 -165 0
133 69 -165 0
133 -69 165 0
-133 69 165 0
-134 -70 -166 0
134 70 -166 0
134 -70 166 0
-134 70 166 0
-135 -71 -167 0
135 71 -167 0
135 -71 167 0
-135 71 167 0
-136 -72 -168 0
136 72 -168 0
136 -72 168 0
-136 72 168 0
-137 -73 -169 0
137 73 -169 0
137 -73 169 0
-137 73 169 0
-138 -74 -170 0
138 74 -170 0
138 -74 170 0
-138 74 170 0
-139 -75 -171 0
139 75 -171 0
139 -75 171 0
-139 75 171 0
-140 -76 -172 0
140 76 -172 0
140 -76 172 0
-140 76 172 0
-141 -77 -173 0
141 77 -173 0
141 -77 173 0
-141 77 173 0
-142 -78 -174 0
142 78 -174 0
142 -78 174 0
-142 78 174 0
-143 -79 -175 0
143 79 -175 0
143 -79 175 0
-143 79 175 0
-144 -80 -176 0
144 80 -176 0
144 -80 176 0
-144 80 176 0
-145 -81 -177 0
145 81 -177 0
145 -81 177 0
-145 81 177 0
-146 -82 -178 0
146 82 -178 0
146 -82 178 0
-146 82 178 0
-147 -83 -179 0
147 83 -179 0
147 -83 179 0
-147 83 179 0
-148 -84 -180 0
148 84 -180 0
148 -84 180 0
-148 84 180 0
-149 -85 -181 0
149 85 -181 0
149 -85 181 0
-149 85 181 0
-150 -86 -182 0
150 86 -182 0
150 -86 182 0
-150 86 182 0
-151 -87 -183 0
151 87 -183 0
151 -87 183 0
-151 87 183 0
-152 -88 -184 0
152 88 -184 0
152 -88 184 0
-152 88 184 0
-153 -89 -185 0
153 89 -185 0
153 -89 185 0
-153 89 185 0
-154 -90 -186 0
154 90 -186 0
154 -90 186 0
-154 90 186 0
-155 -91 -187 0
155 91 -187 0
155 -91 187 0
-155 91 187 0
-156 -92 -188 0
156 92 -188 0
156 -92 188 0
-156 92 188 0
-157 -93 -189 0
157 93 -189 0
157 -93 189 0
-157 93 189 0
-158 -94 -190 0
158 94 -190 0
158 -94 190 0
-158 94 190 0
-159 -95 -191 0
159 95 -191 0
159 -95 191 0
-159 95 191 0
-160 -96 -192 0
160 96 -192 0
160 -96 192 0
-160 96 192 0
-33 -161 -193 0
33 161 -193 0
33 -161 193 0
-33 161 193 0
-34 -162 -194 0
34 162 -194 0
34 -162 194 0
-34 162 194 0
-35 -163 -195 0
35 163 -195 0
35 -163 195 0
-35 163 195 0
-36 -164 -196 0
36 164 -196 0
36 -164 196 0
-36 164 196 0
-37 -165 -197 0
37 165 -197 0
37 -165 197 0
-37 165 197 0
-38 -166 -198 0
38 166 -198 0
38 -166 198 0
-38 166 198 0
-39 -167 -199 0
39 167 -199 0
39 -167 199 0
-39 167 199 0
-40 -168 -200 0
40 168 -200 0
40 -168 200 0
-40 168 200 0
-41 -169 -201 0
41 169 -201 0
41 -169 201 0
-41 169 201 0
-42 -170 -202 0
42 170 -202 0
42 -170 202 0
-42 170 202 0
-43 -171 -203 0
43 171 -203 0
43 -171 203 0
-43 171 203 0
-44 -172 -204 0
44 172 -204 0
44 -172 204 0
-44 172 204 0
-45 -173 -205 0
45 173 -205 0
45 -173 205 0
-45 173 205 0
-46 -174 -206 0
46 174 -206 0
46 -174 206 0
-46 174 206 0
-47 -175 -207 0
47 175 -207 0
47 -175 207 0
-47 175 207 0
-48 -176 -208 0
48 176 -208 0
48 -176 208 0
-48 176 208 0
-49 -177 -209 0
49 177 -209 0
49 -177 209 0
-49 177 209 0
-50 -178 -210 0
50 178 -210 0
50 -178 210 0
-50 178 210 0
-51 -179 -211 0
51 179 -211 0
51 -179 211 0
-51 179 211 0
-52 -180 -212 0
52 180 -212 0
52 -180 212 0
-52 180 212 0
-53 -181 -213 0
53 181 -213 0
53 -181 213 0
-53 181 213 0
-54 -182 -214 0
54 182 -214 0
54 -182 214 0
-54 182 214 0
-55 -183 -215 0
55 183 -215 0
55 -183 215 0
-55 183 215 0
-56 -184 -216 0
56 184 -216 0
56 -184 216 0
-56 184 216 0
-57 -185 -217 0
57 185 -217 0
57 -185 217 0
-57 185 217 0
-58 -186 -218 0
58 186 -218 0
58 -186 218 0
-58 186 218 0
-59 -187 -219 0
59 187 -219 0
59 -187 219 0
-59 187 219 0
-60 -188 -220 0
60 188 -220 0
60 -188 220 0
-60 188 220 0
-61 -189 -221 0
61 189 -221 0
61 -189 221 0
-61 189 221 0
-62 -190 -222 0
62 190 -222 0
62 -190 222 0
-62 190 222 0
-63 -191 -223 0
63 191 -223 0
63 -191 223 0
-63 191 223 0
-64 -192 -224 0
64 192 -224 0
64 -192 224 0
-64 192 224 0
-225 193 0
-225 94 0
-193 -94 225 0
-226 194 0
-226 95 0
-194 -95 226 0
-227 195 0
-227 96 0
-195 -96 227 0
-228 196 0
-228 65 0
-196 -65 228 0
-229 197 0
-229 66 0
-197 -66 229 0
-230 198 0
-230 67 0
-198 -67 230 0
-231 199 0
-231 68 0
-199 -68 231 0
-232 200 0
-232 69 0
-200 -69 232 0
-233 201 0
-233 70 0
-201 -70 233 0
-234 202 0
-234 71 0
-202 -71 234 0
-235 203 0
-235 72 0
-203 -72 235 0
-236 204 0
-236 73 0
-204 -73 236 0
-237 205 0
-237 74 0
-205 -74 237 0
-238 206 0
-238 75 0
-206 -75 238 0
-239 207 0
-239 76 0
-207 -76 239 0
-240 208 0
-240 77 0
-208 -77 240 0
-241 209 0
-241 78 0
-209 -78 241 0
-242 210 0
-242 79 0
-210 -79 242 0
-243 211 0
-243 80 0
-211 -80 243 0
-244 212 0
-244 81 0
-212 -81 244 0
-245 213 0
-245 82 0
-213 -82 245 0
-246 214 0
-246 83 0
-214 -83 246 0
-247 215 0
-247 84 0
-215 -84 247 0
-248 216 0
-248 85 0
-216 -85 248 0
-249 217 0
-249 86 0
-217 -86 249 0
-250 218 0
-250 87 0
-218 -87 250 0
-251 219 0
-251 88 0
-219 -88 251 0
-252 220 0
-252 89 0
-220 -89 252 0
-253 221 0
-253 90 0
-221 -90 253 0
-254 222 0
-254 91 0
-222 -91 254 0
-255 223 0
-255 92 0
-223 -92 255 0
-256 224 0
-256 93 0
-224 -93 256 0
-225 -222 -257 0
225 222 -257 0
225 -222 257 0
-225 222 257 0
-226 -223 -258 0
226 223 -258 0
226 -223 258 0
-226 223 258 0
-227 -224 -259 0
227 224 -259 0
227 -224 259 0
-227 224 259 0
-228 -193 -260 0
228 193 -260 0
228 -193 260 0
-228 193 260 0
-229 -194 -261 0
229 194 -261 0
229 -194 261 0
-229 194 261 0
-230 -195 -262 0
230 195 -262 0
230 -195 262 0
-230 195 262 0
-231 -196 -263 0
231 196 -263 0
231 -196 263 0
-231 196 263 0
-232 -197 -264 0
232 197 -264 0
232 -197 264 0
-232 197 264 0
-233 -198 -265 0
233 198 -265 0
233 -198 265 0
-233 198 265 0
-234 -199 -266 0
234 199 -266 0
234 -199 266 0
-234 199 266 0
-235 -200 -267 0
235 200 -267 0
235 -200 267 0
-235 200 267 0
-236 -201 -268 0
236 201 -268 0
236 -201 268 0
-236 201 268 0
-237 -202 -269 0
237 202 -269 0
237 -202 269 0
-237 202 269 0
-238 -203 -270 0
238 203 -270 0
238 -203 270 0
-238 203 270 0
-239 -204 -271 0
239 204 -271 0
239 -204 271 0
-239 204 271 0
-240 -205 -272 0
240 205 -272 0
240 -205 272 0
-240 205 272 0
-241 -206 -273 0
241 206 -273 0
241 -206 273 0
-241 206 273 0
-242 -207 -274 0
242 207 -274 0
242 -207 274 0
-242 207 274 0
-243 -208 -275 0
243 208 -275 0
243 -208 275 0
-243 208 275 0
-244 -209 -276 0
244 209 -276 0
244 -209 276 0
-244 209 276 0
-245 -210 -277 0
245 210 -277 0
245 -210 277 0
-245 210 277 0
-246 -211 -278 0
246 211 -278 0
246 -211 278 0
-246 211 278 0
-247 -212 -279 0
247 212 -279 0
247 -212 279 0
-247 212 279 0
-248 -213 -280 0
248 213 -280 0
248 -213 280 0
-248 213 280 0
-249 -214 -281 0
249 214 -281 0
249 -214 281 0
-249 214 281 0
-250 -215 -282 0
250 215 -282 0
250 -215 282 0
-250 215 282 0
-251 -216 -283 0
251 216 -283 0
251 -216 283 0
-251 216 283 0
-252 -217 -284 0
252 217 -284 0
252 -217 284 0
-252 217 284 0
-253 -218 -285 0
253 218 -285 0
253 -218 285 0
-253 218 285 0
-254 -219 -286 0
254 219 -286 0
254 -219 286 0
-254 219 286 0
-255 -220 -287 0
255 220 -287 0
255 -220 287 0
-255 220 287 0
-256 -221 -288 0
256 221 -288 0
256 -221 288 0
-256 221 288 0
-257 -94 -289 0
257 94 -289 0
257 -94 289 0
-257 94 289 0
-258 -95 -290 0
258 95 -290 0
258 -95 290 0
-258 95 290 0
-259 -96 -291 0
259 96 -291 0
259 -96 291 0
-259 96 291 0
-260 -65 -292 0
260 65 -292 0
260 -65 292 0
-260 65 292 0
-261 -66 -293 0
261 66 -293 0
261 -66 293 0
-261 66 293 0
-262 -67 -294 0
262 67 -294 0
262 -67 294 0
-262 67 294 0
-263 -68 -295 0
263 68 -295 0
263 -68 295 0
-263 68 295 0
-264 -69 -296 0
264 69 -296 0
264 -69 296 0
-264 69 296 0
-265 -70 -297 0
265 70 -297 0
265 -70 297 0
-265 70 297 0
-266 -71 -298 0
266 71 -298 0
266 -71 298 0
-266 71 298 0
-267 -72 -299 0
267 72 -299 0
267 -72 299 0
-267 72 299 0
-268 -73 -300 0
268 73 -300 0
268 -73 300 0
-268 73 300 0
-269 -74 -301 0
269 74 -301 0
269 -74 301 0
-269 74 301 0
-270 -75 -302 0
270 75 -302 0
270 -75 302 0
-270 75 302 0
-271 -76 -303 0
271 76 -303 0
271 -76 303 0
-271 76 303 0
-272 -77 -304 0
272 77 -304 0
272 -77 304 0
-272 77 304 0
-273 -78 -305 0
273 78 -305 0
273 -78 305 0
-273 78 305 0
-274 -79 -306 0
274 79 -306 0
274 -79 306 0
-274 79 306 0
-275 -80 -307 0
275 80 -307 0
275 -80 307 0
-275 80 307 0
-276 -81 -308 0
276 81 -308 0
276 -81 308 0
-276 81 308 0
-277 -82 -309 0
277 82 -309 0
277 -82 309 0
-277 82 309 0
-278 -83 -310 0
278 83 -310 0
278 -83 310 0
-278 83 310 0
-279 -84 -311 0
279 84 -311 0
279 -84 311 0
-279 84 311 0
-280 -85 -312 0
280 85 -312 0
280 -85 312 0
-280 85 312 0
-281 -86 -313 0
281 86 -313 0
281 -86 313 0
-281 86 313 0
-282 -87 -314 0
282 87 -314 0
282 -87 314 0
-282 87 314 0
-283 -88 -315 0
283 88 -315 0
283 -88 315 0
-283 88 315 0
-284 -89 -316 0
284 89 -316 0
284 -89 316 0
-284 89 316 0
-285 -90 -317 0
285 90 -317 0
285 -90 317 0
-285 90 317 0
-286 -91 -318 0
286 91 -318 0
286 -91 318 0
-286 91 318 0
-287 -92 -319 0
287 92 -319 0
287 -92 319 0
-287 92 319 0
-288 -93 -320 0
288 93 -320 0
288 -93 320 0
-288 93 320 0
-1 -289 -321 0
1 289 -321 0
1 -289 321 0
-1 289 321 0
-2 -290 -322 0
2 290 -322 0
2 -290 322 0
-2 290 322 0
-3 -291 -323 0
3 291 -323 0
3 -291 323 0
-3 291 323 0
-4 -292 -324 0
4 292 -324 0
4 -292 324 0
-4 292 324 0
-5 -293 -325 0
5 293 -325 0
5 -293 325 0
-5 293 325 0
-6 -294 -326 0
6 294 -326 0
6 -294 326 0
-6 294 326 0
-7 -295 -327 0
7 295 -327 0
7 -295 327 0
-7 295 327 0
-8 -296 -328 0
8 296 -328 0
8 -296 328 0
-8 296 328 0
-9 -297 -329 0
9 297 -329 0
9 -297 329 0
-9 297 329 0
-10 -298 -330 0
10 298 -330 0
10 -298 330 0
-10 298 330 0
-11 -299 -331 0
11 299 -331 0
11 -299 331 0
-11 299 331 0
-12 -300 -332 0
12 300 -332 0
12 -300 332 0
-12 300 332 0
-13 -301 -333 0
13 301 -333 0
13 -301 333 0
-13 301 333 0
-14 -302 -334 0
14 302 -334 0
14 -302 334 0
-14 302 334 0
-15 -303 -335 0
15 303 -335 0
15 -303 335 0
-15 303 335 0
-16 -304 -336 0
16 304 -336 0
16 -304 336 0
-16 304 336 0
-17 -305 -337 0
17 305 -337 0
17 -305 337 0
-17 305 337 0
-18 -306 -338 0
18 306 -338 0
18 -306 338 0
-18 306 338 0
-19 -307 -339 0
19 307 -339 0
19 -307 339 0
-19 307 339 0
-20 -308 -340 0
20 308 -340 0
20 -308 340 0
-20 308 340 0
-21 -309 -341 0
21 309 -341 0
21 -309 341 0
-21 309 341 0
-22 -310 -342 0
22 310 -342 0
22 -310 342 0
-22 310 342 0
-23 -311 -343 0
23 311 -343 0
23 -311 343 0
-23 311 343 0
-24 -312 -344 0
24 312 -344 0
24 -312 344 0
-24 312 344 0
-25 -313 -345 0
25 313 -345 0
25 -313 345 0
-25 313 345 0
-26 -314 -346 0
26 314 -346 0
26 -314 346 0
-26 314 346 0
-27 -315 -347 0
27 315 -347 0
27 -315 347 0
-27 315 347 0
-28 -316 -348 0
28 316 -348 0
28 -316 348 0
-28 316 348 0
-29 -317 -349 0
29 317 -349 0
29 -317 349 0
-29 317 349 0
-30 -318 -350 0
30 318 -350 0
30 -318 350 0
-30 318 350 0
-31 -319 -351 0
31 319 -351 0
31 -319 351 0
-31 319 351 0
-32 -320 -352 0
32 320 -352 0
32 -320 352 0
-32 320 352 0
-353 321 0
-353 91 0
-321 -91 353 0
-354 322 0
-354 92 0
-322 -92 354 0
-355 323 0
-355 93 0
-323 -93 355 0
-356 324 0
-356 94 0
-324 -94 356 0
-357 325 0
-357 95 0
-325 -95 357 0
-358 326 0
-358 96 0
-326 -96 358 0
-359 327 0
-359 65 0
-327 -65 359 0
-360 328 0
-360 66 0
-328 -66 360 0
-361 329 0
-361 67 0
-329 -67 361 0
-362 330 0
-362 68 0
-330 -68 362 0
-363 331 0
-363 69 0
-331 -69 363 0
-364 332 0
-364 70 0
-332 -70 364 0
-365 333 0
-365 71 0
-333 -71 365 0
-366 334 0
-366 72 0
-334 -72 366 0
-367 335 0
-367 73 0
-335 -73 367 0
-368 336 0
-368 74 0
-336 -74 368 0
-369 337 0
-369 75 0
-337 -75 369 0
-370 338 0
-370 76 0
-338 -76 370 0
-371 339 0
-371 77 0
-339 -77 371 0
-372 340 0
-372 78 0
-340 -78 372 0
-373 341 0
-373 79 0
-341 -79 373 0
-374 342 0
-374 80 0
-342 -80 374 0
-375 343 0
-375 81 0
-343 -81 375 0
-376 344 0
-376 82 0
-344 -82 376 0
-377 345 0
-377 83 0
-345 -83 377 0
-378 346 0
-378 84 0
-346 -84 378 0
-379 347 0
-379 85 0
-347 -85 379 0
-380 348 0
-380 86 0
-348 -86 380 0
-381 349 0
-381 87 0
-349 -87 381 0
-382 350 0
-382 88 0
-350 -88 382 0
-383 351 0
-383 89 0
-351 -89 383 0
-384 352 0
-384 90 0
-352 -90 384 0
-353 -350 -385 0
353 350 -385 0
353 -350 385 0
-353 350 385 0
-354 -351 -386 0
354 351 -386 0
354 -351 386 0
-354 351 386 0
-355 -352 -387 0
355 352 -387 0
355 -352 387 0
-355 352 387 0
-356 -321 -388 0
356 321 -388 0
356 -321 388 0
-356 321 388 0
-357 -322 -389 0
357 322 -389 0
357 -322 389 0
-357 322 389 0
-358 -323 -390 0
358 323 -390 0
358 -323 390 0
-358 323 390 0
-359 -324 -391 0
359 324 -391 0
359 -324 391 0
-359 324 391 0
-360 -325 -392 0
360 325 -392 0
360 -325 392 0
-360 325 392 0
-361 -326 -393 0
361 326 -393 0
361 -326 393 0
-361 326 393 0
-362 -327 -394 0
362 327 -394 0
362 -327 394 0
-362 327 394 0
-363 -328 -395 0
363 328 -395 0
363 -328 395 0
-363 328 395 0
-364 -329 -396 0
364 329 -396 0
364 -329 396 0
-364 329 396 0
-365 -330 -397 0
365 330 -397 0
365 -330 397 0
-365 330 397 0
-366 -331 -398 0
366 331 -398 0
366 -331 398 0
-366 331 398 0
-367 -332 -399 0
367 332 -399 0
367 -332 399 0
-367 332 399 0
-368 -333 -400 0
368 333 -400 0
368 -333 400 0
-368 333 400 0
-369 -334 -401 0
369 334 -401 0
369 -334 401 0
-369 334 401 0
-370 -335 -402 0
370 335 -402 0
370 -335 402 0
-370 335 402 0
-371 -336 -403 0
371 336 -403 0
371 -336 403 0
-371 336 403 0
-372 -337 -404 0
372 337 -404 0
372 -337 404 0
-372 337 404 0
-373 -338 -405 0
373 338 -405 0
373 -338 405 0
-373 338 405 0
-374 -339 -406 0
374 339 -406 0
374 -339 406 0
-374 339 406 0
-375 -340 -407 0
375 340 -407 0
375 -340 407 0
-375 340 407 0
-376 -341 -408 0
376 341 -408 0
376 -341 408 0
-376 341 408 0
-377 -342 -409 0
377 342 -409 0
377 -342 409 0
-377 342 409 0
-378 -343 -410 0
378 343 -410 0
378 -343 410 0
-378 343 410 0
-379 -344 -411 0
379 344 -411 0
379 -344 411 0
-379 344 411 0
-380 -345 -412 0
380 345 -412 0
380 -345 412 0
-380 345 412 0
-381 -346 -413 0
381 346 -413 0
381 -346 413 0
-381 346 413 0
-382 -347 -414 0
382 347 -414 0
382 -347 414 0
-382 347 414 0
-383 -348 -415 0
383 348 -415 0
383 -348 415 0
-383 348 415 0
-384 -349 -416 0
384 349 -416 0
384 -349 416 0
-384 349 416 0
-385 -91 -417 0
385 91 -417 0
385 -91 417 0
-385 91 417 0
-386 -92 -418 0
386 92 -418 0
386 -92 418 0
-386 92 418 0
-387 -93 -419 0
387 93 -419 0
387 -93 419 0
-387 93 419 0
-388 -94 -420 0
388 94 -420 0
388 -94 420 0
-388 94 420 0
-389 -95 -421 0
389 95 -421 0
389 -95 421 0
-389 95 421 0
-390 -96 -422 0
390 96 -422 0
390 -96 422 0
-390 96 422 0
-391 -65 -423 0
391 65 -423 0
391 -65 423 0
-391 65 423 0
-392 -66 -424 0
392 66 -424 0
392 -66 424 0
-392 66 424 0
-393 -67 -425 0
393 67 -425 0
393 -67 425 0
-393 67 425 0
-394 -68 -426 0
394 68 -426 0
394 -68 426 0
-394 68 426 0
-395 -69 -427 0
395 69 -427 0
395 -69 427 0
-395 69 427 0
-396 -70 -428 0
396 70 -428 0
396 -70 428 0
-396 70 428 0
-397 -71 -429 0
397 71 -429 0
397 -71 429 0
-397 71 429 0
-398 -72 -430 0
398 72 -430 0
398 -72 430 0
-398 72 430 0
-399 -73 -431 0
399 73 -431 0
399 -73 431 0
-399 73 431 0
-400 -74 -432 0
400 74 -432 0
400 -74 432 0
-400 74 432 0
-401 -75 -433 0
401 75 -433 0
401 -75 433 0
-401 75 433 0
-402 -76 -434 0
402 76 -434 0
402 -76 434 0
-402 76 434 0
-403 -77 -435 0
403 77 -435 0
403 -77 435 0
-403 77 435 0
-404 -78 -436 0
404 78 -436 0
404 -78 436 0
-404 78 436 0
-405 -79 -437 0
405 79 -437 0
405 -79 437 0
-405 79 437 0
-406 -80 -438 0
406 80 -438 0
406 -80 438 0
-406 80 438 0
-407 -81 -439 0
407 81 -439 0
407 -81 439 0
-407 81 439 0
-408 -82 -440 0
408 82 -440 0
408 -82 440 0
-408 82 440 0
-409 -83 -441 0
409 83 -441 0
409 -83 441 0
-409 83 441 0
-410 -84 -442 0
410 84 -442 0
410 -84 442 0
-410 84 442 0
-411 -85 -443 0
411 85 -443 0
411 -85 443 0
-411 85 443 0
-412 -86 -444 0
412 86 -444 0
412 -86 444 0
-412 86 444 0
-413 -87 -445 0
413 87 -445 0
413 -87 445 0
-413 87 445 0
-414 -88 -446 0
414 88 -446 0
414 -88 446 0
-414 88 446 0
-415 -89 -447 0
415 89 -447 0
415 -89 447 0
-415 89 447 0
-416 -90 -448 0
416 90 -448 0
416 -90 448 0
-416 90 448 0
-193 -417 -449 0
193 417 -449 0
193 -417 449 0
-193 417 449 0
-194 -418 -450 0
194 418 -450 0
194 -418 450 0
-194 418 450 0
-195 -419 -451 0
195 419 -451 0
195 -419 451 0
-195 419 451 0
-196 -420 -452 0
196 420 -452 0
196 -420 452 0
-196 420 452 0
-197 -421 -453 0
197 421 -453 0
197 -421 453 0
-197 421 453 0
-198 -422 -454 0
198 422 -454 0
198 -422 454 0
-198 422 454 0
-199 -423 -455 0
199 423 -455 0
199 -423 455 0
-199 423 455 0
-200 -424 -456 0
200 424 -456 0
200 -424 456 0
-200 424 456 0
-201 -425 -457 0
201 425 -457 0
201 -425 457 0
-201 425 457 0
-202 -426 -458 0
202 426 -458 0
202 -426 458 0
-202 426 458 0
-203 -427 -459 0
203 427 -459 0
203 -427 459 0
-203 427 459 0
-204 -428 -460 0
204 428 -460 0
204 -428 460 0
-204 428 460 0
-205 -429 -461 0
205 429 -461 0
205 -429 461 0
-205 429 461 0
-206 -430 -462 0
206 430 -462 0
206 -430 462 0
-206 430 462 0
-207 -431 -463 0
207 431 -463 0
207 -431 463 0
-207 431 463 0
-208 -432 -464 0
208 432 -464 0
208 -432 464 0
-208 432 464 0
-209 -433 -465 0
209 433 -465 0
209 -433 465 0
-209 433 465 0
-210 -434 -466 0
210 434 -466 0
210 -434 466 0
-210 434 466 0
-211 -435 -467 0
211 435 -467 0
211 -435 467 0
-211 435 467 0
-212 -436 -468 0
212 436 -468 0
212 -436 468 0
-212 436 468 0
-213 -437 -469 0
213 437 -469 0
213 -437 469 0
-213 437 469 0
-214 -438 -470 0
214 438 -470 0
214 -438 470 0
-214 438 470 0
-215 -439 -471 0
215 439 -471 0
215 -439 471 0
-215 439 471 0
-216 -440 -472 0
216 440 -472 0
216 -440 472 0
-216 440 472 0
-217 -441 -473 0
217 441 -473 0
217 -441 473 0
-217 441 473 0
-218 -442 -474 0
218 442 -474 0
218 -442 474 0
-218 442 474 0
-219 -443 -475 0
219 443 -475 0
219 -443 475 0
-219 443 475 0
-220 -444 -476 0
220 444 -476 0
220 -444 476 0
-220 444 476 0
-221 -445 -477 0
221 445 -477 0
221 -445 477 0
-221 445 477 0
-222 -446 -478 0
222 446 -478 0
222 -446 478 0
-222 446 478 0
-223 -447 -479 0
223 447 -479 0
223 -447 479 0
-223 447 479 0
-224 -448 -480 0
224 448 -480 0
224 -448 480 0
-224 448 480 0
-481 449 0
-481 88 0
-449 -88 481 0
-482 450 0
-482 89 0
-450 -89 482 0
-483 451 0
-483 90 0
-451 -90 483 0
-484 452 0
-484 91 0
-452 -91 484 0
-485 453 0
-485 92 0
-453 -92 485 0
-486 454 0
-486 93 0
-454 -93 486 0
-487 455 0
-487 94 0
-455 -94 487 0
-488 456 0
-488 95 0
-456 -95 488 0
-489 457 0
-489 96 0
-457 -96 489 0
-490 458 0
-490 65 0
-458 -65 490 0
-491 459 0
-491 66 0
-459 -66 491 0
-492 460 0
-492 67 0
-460 -67 492 0
-493 461 0
-493 68 0
-461 -68 493 0
-494 462 0
-494 69 0
-462 -69 494 0
-495 463 0
-495 70 0
-463 -70 495 0
-496 464 0
-496 71 0
-464 -71 496 0
-497 465 0
-497 72 0
-465 -72 497 0
-498 466 0
-498 73 0
-466 -73 498 0
-499 467 0
-499 74 0
-467 -74 499 0
-500 468 0
-500 75 0
-468 -75 500 0
-501 469 0
-501 76 0
-469 -76 501 0
-502 470 0
-502 77 0
-470 -77 502 0
-503 471 0
-503 78 0
-471 -78 503 0
-504 472 0
-504 79 0
-472 -79 504 0
-505 473 0
-505 80 0
-473 -80 505 0
-506 474 0
-506 81 0
-474 -81 506 0
-507 475 0
-507 82 0
-475 -82 507 0
-508 476 0
-508 83 0
-476 -83 508 0
-509 477 0
-509 84 0
-477 -84 509 0
-510 478 0
-510 85 0
-478 -85 510 0
-511 479 0
-511 86 0
-479 -86 511 0
-512 480 0
-512 87 0
-480 -87 512 0
-481 -478 -513 0
481 478 -513 0
481 -478 513 0
-481 478 513 0
-482 -479 -514 0
482 479 -514 0
482 -479 514 0
-482 479 514 0
-483 -480 -515 0
483 480 -515 0
483 -480 515 0
-483 480 515 0
-484 -449 -516 0
484 449 -516 0
484 -449 516 0
-484 449 516 0
-485 -450 -517 0
485 450 -517 0
485 -450 517 0
-485 450 517 0
-486 -451 -518 0
486 451 -518 0
486 -451 518 0
-486 451 518 0
-487 -452 -519 0
487 452 -519 0
487 -452 519 0
-487 452 519 0
-488 -453 -520 0
488 453 -520 0
488 -453 520 0
-488 453 520 0
-489 -454 -521 0
489 454 -521 0
489 -454 521 0
-489 454 521 0
-490 -455 -522 0
490 455 -522 0
490 -455 522 0
-490 455 522 0
-491 -456 -523 0
491 456 -523 0
491 -456 523 0
-491 456 523 0
-492 -457 -524 0
492 457 -524 0
492 -457 524 0
-492 457 524 0
-493 -458 -525 0
493 458 -525 0
493 -458 525 0
-493 458 525 0
-494 -459 -526 0
494 459 -526 0
494 -459 526 0
-494 459 526 0
-495 -460 -527 0
495 460 -527 0
495 -460 527 0
-495 460 527 0
-496 -461 -528 0
496 461 -528 0
496 -461 528 0
-496 461 528 0
-497 -462 -529 0
497 462 -529 0
497 -462 529 0
-497 462 529 0
-498 -463 -530 0
498 463 -530 0
498 -463 530 0
-498 463 530 0
-499 -464 -531 0
499 464 -531 0
499 -464 531 0
-499 464 531 0
-500 -465 -532 0
500 465 -532 0
500 -465 532 0
-500 465 532 0
-501 -466 -533 0
501 466 -533 0
501 -466 533 0
-501 466 533 0
-502 -467 -534 0
502 467 -534 0
502 -467 534 0
-502 467 534 0
-503 -468 -535 0
503 468 -535 0
503 -468 535 0
-503 468 535 0
-504 -469 -536 0
504 469 -536 0
504 -469 536 0
-504 469 536 0
-505 -470 -537 0
505 470 -537 0
505 -470 537 0
-505 470 537 0
-506 -471 -538 0
506 471 -538 0
506 -471 538 0
-506 471 538 0
-507 -472 -539 0
507 472 -539 0
507 -472 539 0
-507 472 539 0
-508 -473 -540 0
508 473 -540 0
508 -473 540 0
-508 473 540 0
-509 -474 -541 0
509 474 -541 0
509 -474 541 0
-509 474 541 0
-510 -475 -542 0
510 475 -542 0
510 -475 542 0
-510 475 542 0
-511 -476 -543 0
511 476 -543 0
511 -476 543 0
-511 476 543 0
-512 -477 -544 0
512 477 -544 0
512 -477 544 0
-512 477 544 0
-513 -88 -545 0
513 88 -545 0
513 -88 545 0
-513 88 545 0
-514 -89 -546 0
514 89 -546 0
514 -89 546 0
-514 89 546 0
-515 -90 -547 0
515 90 -547 0
515 -90 547 0
-515 90 547 0
-516 -91 -548 0
516 91 -548 0
516 -91 548 0
-516 91 548 0
-517 -92 -549 0
517 92 -549 0
517 -92 549 0
-517 92 549 0
-518 -93 -550 0
518 93 -550 0
518 -93 550 0
-518 93 550 0
-519 -94 -551 0
519 94 -551 0
519 -94 551 0
-519 94 551 0
-520 -95 -552 0
520 95 -552 0
520 -95 552 0
-520 95 552 0
-521 -96 -553 0
521 96 -553 0
521 -96 553 0
-521 96 553 0
-522 -65 -554 0
522 65 -554 0
522 -65 554 0
-522 65 554 0
-523 -66 -555 0
523 66 -555 0
523 -66 555 0
-523 66 555 0
-524 -67 -556 0
524 67 -556 0
524 -67 556 0
-524 67 556 0
-525 -68 -557 0
525 68 -557 0
525 -68 557 0
-525 68 557 0
-526 -69 -558 0
526 69 -558 0
526 -69 558 0
-526 69 558 0
-527 -70 -559 0
527 70 -559 0
527 -70 559 0
-527 70 559 0
-528 -71 -560 0
528 71 -560 0
528 -71 560 0
-528 71 560 0
-529 -72 -561 0
529 72 -561 0
529 -72 561 0
-529 72 561 0
-530 -73 -562 0
530 73 -562 0
530 -73 562 0
-530 73 562 0
-531 -74 -563 0
531 74 -563 0
531 -74 563 0
-531 74 563 0
-532 -75 -564 0
532 75 -564 0
532 -75 564 0
-532 75 564 0
-533 -76 -565 0
533 76 -565 0
533 -76 565 0
-533 76 565 0
-534 -77 -566 0
534 77 -566 0
534 -77 566 0
-534 77 566 0
-535 -78 -567 0
535 78 -567 0
535 -78 567 0
-535 78 567 0
-536 -79 -568 0
536 79 -568 0
536 -79 568 0
-536 79 568 0
-537 -80 -569 0
537 80 -569 0
537 -80 569 0
-537 80 569 0
-538 -81 -570 0
538 81 -570 0
538 -81 570 0
-538 81 570 0
-539 -82 -571 0
539 82 -571 0
539 -82 571 0
-539 82 571 0
-540 -83 -572 0
540 83 -572 0
540 -83 572 0
-540 83 572 0
-541 -84 -573 0
541 84 -573 0
541 -84 573 0
-541 84 573 0
-542 -85 -574 0
542 85 -574 0
542 -85 574 0
-542 85 574 0
-543 -86 -575 0
543 86 -575 0
543 -86 575 0
-543 86 575 0
-544 -87 -576 0
544 87 -576 0
544 -87 576 0
-544 87 576 0
-321 -545 -577 0
321 545 -577 0
321 -545 577 0
-321 545 577 0
-322 -546 -578 0
322 546 -578 0
322 -546 578 0
-322 546 578 0
-323 -547 -579 0
323 547 -579 0
323 -547 579 0
-323 547 579 0
-324 -548 -580 0
324 548 -580 0
324 -548 580 0
-324 548 580 0
-325 -549 -581 0
325 549 -581 0
325 -549 581 0
-325 549 581 0
-326 -550 -582 0
326 550 -582 0
326 -550 582 0
-326 550 582 0
-327 -551 -583 0
327 551 -583 0
327 -551 583 0
-327 551 583 0
-328 -552 -584 0
328 552 -584 0
328 -552 584 0
-328 552 584 0
-329 -553 -585 0
329 553 -585 0
329 -553 585 0
-329 553 585 0
-330 -554 -586 0
330 554 -586 0
330 -554 586 0
-330 554 586 0
-331 -555 -587 0
331 555 -587 0
331 -555 587 0
-331 555 587 0
-332 -556 -588 0
332 556 -588 0
332 -556 588 0
-332 556 588 0
-333 -557 -589 0
333 557 -589 0
333 -557 589 0
-333 557 589 0
-334 -558 -590 0
334 558 -590 0
334 -558 590 0
-334 558 590 0
-335 -559 -591 0
335 559 -591 0
335 -559 591 0
-335 559 591 0
-336 -560 -592 0
336 560 -592 0
336 -560 592 0
-336 560 592 0
-337 -561 -593 0
337 561 -593 0
337 -561 593 0
-337 561 593 0
-338 -562 -594 0
338 562 -594 0
338 -562 594 0
-338 562 594 0
-339 -563 -595 0
339 563 -595 0
339 -563 595 0
-339 563 595 0
-340 -564 -596 0
340 564 -596 0
340 -564 596 0
-340 564 596 0
-341 -565 -597 0
341 565 -597 0
341 -565 597 0
-341 565 597 0
-342 -566 -598 0
342 566 -598 0
342 -566 598 0
-342 566 598 0
-343 -567 -599 0
343 567 -599 0
343 -567 599 0
-343 567 599 0
-344 -568 -600 0
344 568 -600 0
344 -568 600 0
-344 568 600 0
-345 -569 -601 0
345 569 -601 0
345 -569 601 0
-345 569 601 0
-346 -570 -602 0
346 570 -602 0
346 -570 602 0
-346 570 602 0
-347 -571 -603 0
347 571 -603 0
347 -571 603 0
-347 571 603 0
-348 -572 -604 0
348 572 -604 0
348 -572 604 0
-348 572 604 0
-349 -573 -605 0
349 573 -605 0
349 -573 605 0
-349 573 605 0
-350 -574 -606 0
350 574 -606 0
350 -574 606 0
-350 574 606 0
-351 -575 -607 0
351 575 -607 0
351 -575 607 0
-351 575 607 0
-352 -576 -608 0
352 576 -608 0
352 -576 608 0
-352 576 608 0
-1 0
-2 0
-3 0
-4 0
-5 0
-6 0
-7 0
-8 0
-9 0
-10 0
-11 0
-12 0
-13 0
-14 0
-15 0
-16 0
-17 0
-18 0
-19 0
-20 0
-21 0
-22 0
-23 0
-24 0
-25 0
-26 0
-27 0
-28 0
-29 0
-30 0
-31 0
-32 0
-33 0
-34 0
-35 0
-36 0
-37 0
-38 0
-39 0
-40 0
-41 0
-42 0
-43 0
-44 0
-45 0
-46 0
-47 0
-48 0
-49 0
-50 0
-51 0
-52 0
-53 0
-54 0
-55 0
-56 0
-57 0
-58 0
-59 0
-60 0
-61 0
-62 0
-63 0
-64 0
-577 0
-578 0
579 0
-580 0
581 0
582 0
-583 0
584 0
-585 0
586 0
-587 0
588 0
589 0
-590 0
591 0
592 0
-593 0
594 0
-595 0
-596 0
-597 0
598 0
599 0
600 0
-601 0
602 0
-603 0
-604 0
605 0
-606 0
607 0
608 0
-449 0
450 0
-451 0
-452 0
453 0
454 0
-455 0
-456 0
-457 0
-458 0
459 0
-460 0
-461 0
-462 0
-463 0
-464 0
465 0
-466 0
-467 0
468 0
469 0
470 0
-471 0
472 0
-473 0
-474 0
475 0
-476 0
477 0
-478 0
-479 0
-480 0
