c Feistel cipher key recovery — XOR-heavy crypto benchmark
c block_size=32 key_size=16 rounds=8 seed=42
c plaintext=0x222724a2 key=0x517d ciphertext=0x1004ca84
c vars=560 clauses=1984
c Expected: SATISFIABLE (key recovery)
p cnf 560 1984
-49 1 0
-49 33 0
-1 -33 49 0
-50 2 0
-50 34 0
-2 -34 50 0
-51 3 0
-51 35 0
-3 -35 51 0
-52 4 0
-52 36 0
-4 -36 52 0
-53 5 0
-53 37 0
-5 -37 53 0
-54 6 0
-54 38 0
-6 -38 54 0
-55 7 0
-55 39 0
-7 -39 55 0
-56 8 0
-56 40 0
-8 -40 56 0
-57 9 0
-57 41 0
-9 -41 57 0
-58 10 0
-58 42 0
-10 -42 58 0
-59 11 0
-59 43 0
-11 -43 59 0
-60 12 0
-60 44 0
-12 -44 60 0
-61 13 0
-61 45 0
-13 -45 61 0
-62 14 0
-62 46 0
-14 -46 62 0
-63 15 0
-63 47 0
-15 -47 63 0
-64 16 0
-64 48 0
-16 -48 64 0
-49 -14 -65 0
49 14 -65 0
49 -14 65 0
-49 14 65 0
-50 -15 -66 0
50 15 -66 0
50 -15 66 0
-50 15 66 0
-51 -16 -67 0
51 16 -67 0
51 -16 67 0
-51 16 67 0
-52 -1 -68 0
52 1 -68 0
52 -1 68 0
-52 1 68 0
-53 -2 -69 0
53 2 -69 0
53 -2 69 0
-53 2 69 0
-54 -3 -70 0
54 3 -70 0
54 -3 70 0
-54 3 70 0
-55 -4 -71 0
55 4 -71 0
55 -4 71 0
-55 4 71 0
-56 -5 -72 0
56 5 -72 0
56 -5 72 0
-56 5 72 0
-57 -6 -73 0
57 6 -73 0
57 -6 73 0
-57 6 73 0
-58 -7 -74 0
58 7 -74 0
58 -7 74 0
-58 7 74 0
-59 -8 -75 0
59 8 -75 0
59 -8 75 0
-59 8 75 0
-60 -9 -76 0
60 9 -76 0
60 -9 76 0
-60 9 76 0
-61 -10 -77 0
61 10 -77 0
61 -10 77 0
-61 10 77 0
-62 -11 -78 0
62 11 -78 0
62 -11 78 0
-62 11 78 0
-63 -12 -79 0
63 12 -79 0
63 -12 79 0
-63 12 79 0
-64 -13 -80 0
64 13 -80 0
64 -13 80 0
-64 13 80 0
-65 -33 -81 0
65 33 -81 0
65 -33 81 0
-65 33 81 0
-66 -34 -82 0
66 34 -82 0
66 -34 82 0
-66 34 82 0
-67 -35 -83 0
67 35 -83 0
67 -35 83 0
-67 35 83 0
-68 -36 -84 0
68 36 -84 0
68 -36 84 0
-68 36 84 0
-69 -37 -85 0
69 37 -85 0
69 -37 85 0
-69 37 85 0
-70 -38 -86 0
70 38 -86 0
70 -38 86 0
-70 38 86 0
-71 -39 -87 0
71 39 -87 0
71 -39 87 0
-71 39 87 0
-72 -40 -88 0
72 40 -88 0
72 -40 88 0
-72 40 88 0
-73 -41 -89 0
73 41 -89 0
73 -41 89 0
-73 41 89 0
-74 -42 -90 0
74 42 -90 0
74 -42 90 0
-74 42 90 0
-75 -43 -91 0
75 43 -91 0
75 -43 91 0
-75 43 91 0
-76 -44 -92 0
76 44 -92 0
76 -44 92 0
-76 44 92 0
-77 -45 -93 0
77 45 -93 0
77 -45 93 0
-77 45 93 0
-78 -46 -94 0
78 46 -94 0
78 -46 94 0
-78 46 94 0
-79 -47 -95 0
79 47 -95 0
79 -47 95 0
-79 47 95 0
-80 -48 -96 0
80 48 -96 0
80 -48 96 0
-80 48 96 0
-17 -81 -97 0
17 81 -97 0
17 -81 97 0
-17 81 97 0
-18 -82 -98 0
18 82 -98 0
18 -82 98 0
-18 82 98 0
-19 -83 -99 0
19 83 -99 0
19 -83 99 0
-19 83 99 0
-20 -84 -100 0
20 84 -100 0
20 -84 100 0
-20 84 100 0
-21 -85 -101 0
21 85 -101 0
21 -85 101 0
-21 85 101 0
-22 -86 -102 0
22 86 -102 0
22 -86 102 0
-22 86 102 0
-23 -87 -103 0
23 87 -103 0
23 -87 103 0
-23 87 103 0
-24 -88 -104 0
24 88 -104 0
24 -88 104 0
-24 88 104 0
-25 -89 -105 0
25 89 -105 0
25 -89 105 0
-25 89 105 0
-26 -90 -106 0
26 90 -106 0
26 -90 106 0
-26 90 106 0
-27 -91 -107 0
27 91 -107 0
27 -91 107 0
-27 91 107 0
-28 -92 -108 0
28 92 -108 0
28 -92 108 0
-28 92 108 0
-29 -93 -109 0
29 93 -109 0
29 -93 109 0
-29 93 109 0
-30 -94 -110 0
30 94 -110 0
30 -94 110 0
-30 94 110 0
-31 -95 -111 0
31 95 -111 0
31 -95 111 0
-31 95 111 0
-32 -96 -112 0
32 96 -112 0
32 -96 112 0
-32 96 112 0
-113 97 0
-113 46 0
-97 -46 113 0
-114 98 0
-114 47 0
-98 -47 114 0
-115 99 0
-115 48 0
-99 -48 115 0
-116 100 0
-116 33 0
-100 -33 116 0
-117 101 0
-117 34 0
-101 -34 117 0
-118 102 0
-118 35 0
-102 -35 118 0
-119 103 0
-119 36 0
-103 -36 119 0
-120 104 0
-120 37 0
-104 -37 120 0
-121 105 0
-121 38 0
-105 -38 121 0
-122 106 0
-122 39 0
-106 -39 122 0
-123 107 0
-123 40 0
-107 -40 123 0
-124 108 0
-124 41 0
-108 -41 124 0
-125 109 0
-125 42 0
-109 -42 125 0
-126 110 0
-126 43 0
-110 -43 126 0
-127 111 0
-127 44 0
-111 -44 127 0
-128 112 0
-128 45 0
-112 -45 128 0
-113 -110 -129 0
113 110 -129 0
113 -110 129 0
-113 110 129 0
-114 -111 -130 0
114 111 -130 0
114 -111 130 0
-114 111 130 0
-115 -112 -131 0
115 112 -131 0
115 -112 131 0
-115 112 131 0
-116 -97 -132 0
116 97 -132 0
116 -97 132 0
-116 97 132 0
-117 -98 -133 0
117 98 -133 0
117 -98 133 0
-117 98 133 0
-118 -99 -134 0
118 99 -134 0
118 -99 134 0
-118 99 134 0
-119 -100 -135 0
119 100 -135 0
119 -100 135 0
-119 100 135 0
-120 -101 -136 0
120 101 -136 0
120 -101 136 0
-120 101 136 0
-121 -102 -137 0
121 102 -137 0
121 -102 137 0
-121 102 137 0
-122 -103 -138 0
122 103 -138 0
122 -103 138 0
-122 103 138 0
-123 -104 -139 0
123 104 -139 0
123 -104 139 0
-123 104 139 0
-124 -105 -140 0
124 105 -140 0
124 -105 140 0
-124 105 140 0
-125 -106 -141 0
125 106 -141 0
125 -106 141 0
-125 106 141 0
-126 -107 -142 0
126 107 -142 0
126 -107 142 0
-126 107 142 0
-127 -108 -143 0
127 108 -143 0
127 -108 143 0
-127 108 143 0
-128 -109 -144 0
128 109 -144 0
128 -109 144 0
-128 109 144 0
-129 -46 -145 0
129 46 -145 0
129 -46 145 0
-129 46 145 0
-130 -47 -146 0
130 47 -146 0
130 -47 146 0
-130 47 146 0
-131 -48 -147 0
131 48 -147 0
131 -48 147 0
-131 48 147 0
-132 -33 -148 0
132 33 -148 0
132 -33 148 0
-132 33 148 0
-133 -34 -149 0
133 34 -149 0
133 -34 149 0
-133 34 149 0
-134 -35 -150 0
134 35 -150 0
134 -35 150 0
-134 35 150 0
-135 -36 -151 0
135 36 -151 0
135 -36 151 0
-135 36 151 0
-136 -37 -152 0
136 37 -152 0
136 -37 152 0
-136 37 152 0
-137 -38 -153 0
137 38 -153 0
137 -38 153 0
-137 38 153 0
-138 -39 -154 0
138 39 -154 0
138 -39 154 0
-138 39 154 0
-139 -40 -155 0
139 40 -155 0
139 -40 155 0
-139 40 155 0
-140 -41 -156 0
140 41 -156 0
140 -41 156 0
-140 41 156 0
-141 -42 -157 0
141 42 -157 0
141 -42 157 0
-141 42 157 0
-142 -43 -158 0
142 43 -158 0
142 -43 158 0
-142 43 158 0
-143 -44 -159 0
143 44 -159 0
143 -44 159 0
-143 44 159 0
-144 -45 -160 0
144 45 -160 0
144 -45 160 0
-144 45 160 0
-1 -145 -161 0
1 145 -161 0
1 -145 161 0
-1 145 161 0
-2 -146 -162 0
2 146 -162 0
2 -146 162 0
-2 146 162 0
-3 -147 -163 0
3 147 -163 0
3 -147 163 0
-3 147 163 0
-4 -148 -164 0
4 148 -164 0
4 -148 164 0
-4 148 164 0
-5 -149 -165 0
5 149 -165 0
5 -149 165 0
-5 149 165 0
-6 -150 -166 0
6 150 -166 0
6 -150 166 0
-6 150 166 0
-7 -151 -167 0
7 151 -167 0
7 -151 167 0
-7 151 167 0
-8 -152 -168 0
8 152 -168 0
8 -152 168 0
-8 152 168 0
-9 -153 -169 0
9 153 -169 0
9 -153 169 0
-9 153 169 0
-10 -154 -170 0
10 154 -170 0
10 -154 170 0
-10 154 170 0
-11 -155 -171 0
11 155 -171 0
11 -155 171 0
-11 155 171 0
-12 -156 -172 0
12 156 -172 0
12 -156 172 0
-12 156 172 0
-13 -157 -173 0
13 157 -173 0
13 -157 173 0
-13 157 173 0
-14 -158 -174 0
14 158 -174 0
14 -158 174 0
-14 158 174 0
-15 -159 -175 0
15 159 -175 0
15 -159 175 0
-15 159 175 0
-16 -160 -176 0
16 160 -176 0
16 -160 176 0
-16 160 176 0
-177 161 0
-177 43 0
-161 -43 177 0
-178 162 0
-178 44 0
-162 -44 178 0
-179 163 0
-179 45 0
-163 -45 179 0
-180 164 0
-180 46 0
-164 -46 180 0
-181 165 0
-181 47 0
-165 -47 181 0
-182 166 0
-182 48 0
-166 -48 182 0
-183 167 0
-183 33 0
-167 -33 183 0
-184 168 0
-184 34 0
-168 -34 184 0
-185 169 0
-185 35 0
-169 -35 185 0
-186 170 0
-186 36 0
-170 -36 186 0
-187 171 0
-187 37 0
-171 -37 187 0
-188 172 0
-188 38 0
-172 -38 188 0
-189 173 0
-189 39 0
-173 -39 189 0
-190 174 0
-190 40 0
-174 -40 190 0
-191 175 0
-191 41 0
-175 -41 191 0
-192 176 0
-192 42 0
-176 -42 192 0
-177 -174 -193 0
177 174 -193 0
177 -174 193 0
-177 174 193 0
-178 -175 -194 0
178 175 -194 0
178 -175 194 0
-178 175 194 0
-179 -176 -195 0
179 176 -195 0
179 -176 195 0
-179 176 195 0
-180 -161 -196 0
180 161 -196 0
180 -161 196 0
-180 161 196 0
-181 -162 -197 0
181 162 -197 0
181 -162 197 0
-181 162 197 0
-182 -163 -198 0
182 163 -198 0
182 -163 198 0
-182 163 198 0
-183 -164 -199 0
183 164 -199 0
183 -164 199 0
-183 164 199 0
-184 -165 -200 0
184 165 -200 0
184 -165 200 0
-184 165 200 0
-185 -166 -201 0
185 166 -201 0
185 -166 201 0
-185 166 201 0
-186 -167 -202 0
186 167 -202 0
186 -167 202 0
-186 167 202 0
-187 -168 -203 0
187 168 -203 0
187 -168 203 0
-187 168 203 0
-188 -169 -204 0
188 169 -204 0
188 -169 204 0
-188 169 204 0
-189 -170 -205 0
189 170 -205 0
189 -170 205 0
-189 170 205 0
-190 -171 -206 0
190 171 -206 0
190 -171 206 0
-190 171 206 0
-191 -172 -207 0
191 172 -207 0
191 -172 207 0
-191 172 207 0
-192 -173 -208 0
192 173 -208 0
192 -173 208 0
-192 173 208 0
-193 -43 -209 0
193 43 -209 0
193 -43 209 0
-193 43 209 0
-194 -44 -210 0
194 44 -210 0
194 -44 210 0
-194 44 210 0
-195 -45 -211 0
195 45 -211 0
195 -45 211 0
-195 45 211 0
-196 -46 -212 0
196 46 -212 0
196 -46 212 0
-196 46 212 0
-197 -47 -213 0
197 47 -213 0
197 -47 213 0
-197 47 213 0
-198 -48 -214 0
198 48 -214 0
198 -48 214 0
-198 48 214 0
-199 -33 -215 0
199 33 -215 0
199 -33 215 0
-199 33 215 0
-200 -34 -216 0
200 34 -216 0
200 -34 216 0
-200 34 216 0
-201 -35 -217 0
201 35 -217 0
201 -35 217 0
-201 35 217 0
-202 -36 -218 0
202 36 -218 0
202 -36 218 0
-202 36 218 0
-203 -37 -219 0
203 37 -219 0
203 -37 219 0
-203 37 219 0
-204 -38 -220 0
204 38 -220 0
204 -38 220 0
-204 38 220 0
-205 -39 -221 0
205 39 -221 0
205 -39 221 0
-205 39 221 0
-206 -40 -222 0
206 40 -222 0
206 -40 222 0
-206 40 222 0
-207 -41 -223 0
207 41 -223 0
207 -41 223 0
-207 41 223 0
-208 -42 -224 0
208 42 -224 0
208 -42 224 0
-208 42 224 0
-97 -209 -225 0
97 209 -225 0
97 -209 225 0
-97 209 225 0
-98 -210 -226 0
98 210 -226 0
98 -210 226 0
-98 210 226 0
-99 -211 -227 0
99 211 -227 0
99 -211 227 0
-99 211 227 0
-100 -212 -228 0
100 212 -228 0
100 -212 228 0
-100 212 228 0
-101 -213 -229 0
101 213 -229 0
101 -213 229 0
-101 213 229 0
-102 -214 -230 0
102 214 -230 0
102 -214 230 0
-102 214 230 0
-103 -215 -231 0
103 215 -231 0
103 -215 231 0
-103 215 231 0
-104 -216 -232 0
104 216 -232 0
104 -216 232 0
-104 216 232 0
-105 -217 -233 0
105 217 -233 0
105 -217 233 0
-105 217 233 0
-106 -218 -234 0
106 218 -234 0
106 -218 234 0
-106 218 234 0
-107 -219 -235 0
107 219 -235 0
107 -219 235 0
-107 219 235 0
-108 -220 -236 0
108 220 -236 0
108 -220 236 0
-108 220 236 0
-109 -221 -237 0
109 221 -237 0
109 -221 237 0
-109 221 237 0
-110 -222 -238 0
110 222 -238 0
110 -222 238 0
-110 222 238 0
-111 -223 -239 0
111 223 -239 0
111 -223 239 0
-111 223 239 0
-112 -224 -240 0
112 224 -240 0
112 -224 240 0
-112 224 240 0
-241 225 0
-241 40 0
-225 -40 241 0
-242 226 0
-242 41 0
-226 -41 242 0
-243 227 0
-243 42 0
-227 -42 243 0
-244 228 0
-244 43 0
-228 -43 244 0
-245 229 0
-245 44 0
-229 -44 245 0
-246 230 0
-246 45 0
-230 -45 246 0
-247 231 0
-247 46 0
-231 -46 247 0
-248 232 0
-248 47 0
-232 -47 248 0
-249 233 0
-249 48 0
-233 -48 249 0
-250 234 0
-250 33 0
-234 -33 250 0
-251 235 0
-251 34 0
-235 -34 251 0
-252 236 0
-252 35 0
-236 -35 252 0
-253 237 0
-253 36 0
-237 -36 253 0
-254 238 0
-254 37 0
-238 -37 254 0
-255 239 0
-255 38 0
-239 -38 255 0
-256 240 0
-256 39 0
-240 -39 256 0
-241 -238 -257 0
241 238 -257 0
241 -238 257 0
-241 238 257 0
-242 -239 -258 0
242 239 -258 0
242 -239 258 0
-242 239 258 0
-243 -240 -259 0
243 240 -259 0
243 -240 259 0
-243 240 259 0
-244 -225 -260 0
244 225 -260 0
244 -225 260 0
-244 225 260 0
-245 -226 -261 0
245 226 -261 0
245 -226 261 0
-245 226 261 0
-246 -227 -262 0
246 227 -262 0
246 -227 262 0
-246 227 262 0
-247 -228 -263 0
247 228 -263 0
247 -228 263 0
-247 228 263 0
-248 -229 -264 0
248 229 -264 0
248 -229 264 0
-248 229 264 0
-249 -230 -265 0
249 230 -265 0
249 -230 265 0
-249 230 265 0
-250 -231 -266 0
250 231 -266 0
250 -231 266 0
-250 231 266 0
-251 -232 -267 0
251 232 -267 0
251 -232 267 0
-251 232 267 0
-252 -233 -268 0
252 233 -268 0
252 -233 268 0
-252 233 268 0
-253 -234 -269 0
253 234 -269 0
253 -234 269 0
-253 234 269 0
-254 -235 -270 0
254 235 -270 0
254 -235 270 0
-254 235 270 0
-255 -236 -271 0
255 236 -271 0
255 -236 271 0
-255 236 271 0
-256 -237 -272 0
256 237 -272 0
256 -237 272 0
-256 237 272 0
-257 -40 -273 0
257 40 -273 0
257 -40 273 0
-257 40 273 0
-258 -41 -274 0
258 41 -274 0
258 -41 274 0
-258 41 274 0
-259 -42 -275 0
259 42 -275 0
259 -42 275 0
-259 42 275 0
-260 -43 -276 0
260 43 -276 0
260 -43 276 0
-260 43 276 0
-261 -44 -277 0
261 44 -277 0
261 -44 277 0
-261 44 277 0
-262 -45 -278 0
262 45 -278 0
262 -45 278 0
-262 45 278 0
-263 -46 -279 0
263 46 -279 0
263 -46 279 0
-263 46 279 0
-264 -47 -280 0
264 47 -280 0
264 -47 280 0
-264 47 280 0
-265 -48 -281 0
265 48 -281 0
265 -48 281 0
-265 48 281 0
-266 -33 -282 0
266 33 -282 0
266 -33 282 0
-266 33 282 0
-267 -34 -283 0
267 34 -283 0
267 -34 283 0
-267 34 283 0
-268 -35 -284 0
268 35 -284 0
268 -35 284 0
-268 35 284 0
-269 -36 -285 0
269 36 -285 0
269 -36 285 0
-269 36 285 0
-270 -37 -286 0
270 37 -286 0
270 -37 286 0
-270 37 286 0
-271 -38 -287 0
271 38 -287 0
271 -38 287 0
-271 38 287 0
-272 -39 -288 0
272 39 -288 0
272 -39 288 0
-272 39 288 0
-161 -273 -289 0
161 273 -289 0
161 -273 289 0
-161 273 289 0
-162 -274 -290 0
162 274 -290 0
162 -274 290 0
-162 274 290 0
-163 -275 -291 0
163 275 -291 0
163 -275 291 0
-163 275 291 0
-164 -276 -292 0
164 276 -292 0
164 -276 292 0
-164 276 292 0
-165 -277 -293 0
165 277 -293 0
165 -277 293 0
-165 277 293 0
-166 -278 -294 0
166 278 -294 0
166 -278 294 0
-166 278 294 0
-167 -279 -295 0
167 279 -295 0
167 -279 295 0
-167 279 295 0
-168 -280 -296 0
168 280 -296 0
168 -280 296 0
-168 280 296 0
-169 -281 -297 0
169 281 -297 0
169 -281 297 0
-169 281 297 0
-170 -282 -298 0
170 282 -298 0
170 -282 298 0
-170 282 298 0
-171 -283 -299 0
171 283 -299 0
171 -283 299 0
-171 283 299 0
-172 -284 -300 0
172 284 -300 0
172 -284 300 0
-172 284 300 0
-173 -285 -301 0
173 285 -301 0
173 -285 301 0
-173 285 301 0
-174 -286 -302 0
174 286 -302 0
174 -286 302 0
-174 286 302 0
-175 -287 -303 0
175 287 -303 0
175 -287 303 0
-175 287 303 0
-176 -288 -304 0
176 288 -304 0
176 -288 304 0
-176 288 304 0
-305 289 0
-305 37 0
-289 -37 305 0
-306 290 0
-306 38 0
-290 -38 306 0
-307 291 0
-307 39 0
-291 -39 307 0
-308 292 0
-308 40 0
-292 -40 308 0
-309 293 0
-309 41 0
-293 -41 309 0
-310 294 0
-310 42 0
-294 -42 310 0
-311 295 0
-311 43 0
-295 -43 311 0
-312 296 0
-312 44 0
-296 -44 312 0
-313 297 0
-313 45 0
-297 -45 313 0
-314 298 0
-314 46 0
-298 -46 314 0
-315 299 0
-315 47 0
-299 -47 315 0
-316 300 0
-316 48 0
-300 -48 316 0
-317 301 0
-317 33 0
-301 -33 317 0
-318 302 0
-318 34 0
-302 -34 318 0
-319 303 0
-319 35 0
-303 -35 319 0
-320 304 0
-320 36 0
-304 -36 320 0
-305 -302 -321 0
305 302 -321 0
305 -302 321 0
-305 302 321 0
-306 -303 -322 0
306 303 -322 0
306 -303 322 0
-306 303 322 0
-307 -304 -323 0
307 304 -323 0
307 -304 323 0
-307 304 323 0
-308 -289 -324 0
308 289 -324 0
308 -289 324 0
-308 289 324 0
-309 -290 -325 0
309 290 -325 0
309 -290 325 0
-309 290 325 0
-310 -291 -326 0
310 291 -326 0
310 -291 326 0
-310 291 326 0
-311 -292 -327 0
311 292 -327 0
311 -292 327 0
-311 292 327 0
-312 -293 -328 0
312 293 -328 0
312 -293 328 0
-312 293 328 0
-313 -294 -329 0
313 294 -329 0
313 -294 329 0
-313 294 329 0
-314 -295 -330 0
314 295 -330 0
314 -295 330 0
-314 295 330 0
-315 -296 -331 0
315 296 -331 0
315 -296 331 0
-315 296 331 0
-316 -297 -332 0
316 297 -332 0
316 -297 332 0
-316 297 332 0
-317 -298 -333 0
317 298 -333 0
317 -298 333 0
-317 298 333 0
-318 -299 -334 0
318 299 -334 0
318 -299 334 0
-318 299 334 0
-319 -300 -335 0
319 300 -335 0
319 -300 335 0
-319 300 335 0
-320 -301 -336 0
320 301 -336 0
320 -301 336 0
-320 301 336 0
-321 -37 -337 0
321 37 -337 0
321 -37 337 0
-321 37 337 0
-322 -38 -338 0
322 38 -338 0
322 -38 338 0
-322 38 338 0
-323 -39 -339 0
323 39 -339 0
323 -39 339 0
-323 39 339 0
-324 -40 -340 0
324 40 -340 0
324 -40 340 0
-324 40 340 0
-325 -41 -341 0
325 41 -341 0
325 -41 341 0
-325 41 341 0
-326 -42 -342 0
326 42 -342 0
326 -42 342 0
-326 42 342 0
-327 -43 -343 0
327 43 -343 0
327 -43 343 0
-327 43 343 0
-328 -44 -344 0
328 44 -344 0
328 -44 344 0
-328 44 344 0
-329 -45 -345 0
329 45 -345 0
329 -45 345 0
-329 45 345 0
-330 -46 -346 0
330 46 -346 0
330 -46 346 0
-330 46 346 0
-331 -47 -347 0
331 47 -347 0
331 -47 347 0
-331 47 347 0
-332 -48 -348 0
332 48 -348 0
332 -48 348 0
-332 48 348 0
-333 -33 -349 0
333 33 -349 0
333 -33 349 0
-333 33 349 0
-334 -34 -350 0
334 34 -350 0
334 -34 350 0
-334 34 350 0
-335 -35 -351 0
335 35 -351 0
335 -35 351 0
-335 35 351 0
-336 -36 -352 0
336 36 -352 0
336 -36 352 0
-336 36 352 0
-225 -337 -353 0
225 337 -353 0
225 -337 353 0
-225 337 353 0
-226 -338 -354 0
226 338 -354 0
226 -338 354 0
-226 338 354 0
-227 -339 -355 0
227 339 -355 0
227 -339 355 0
-227 339 355 0
-228 -340 -356 0
228 340 -356 0
228 -340 356 0
-228 340 356 0
-229 -341 -357 0
229 341 -357 0
229 -341 357 0
-229 341 357 0
-230 -342 -358 0
230 342 -358 0
230 -342 358 0
-230 342 358 0
-231 -343 -359 0
231 343 -359 0
231 -343 359 0
-231 343 359 0
-232 -344 -360 0
232 344 -360 0
232 -344 360 0
-232 344 360 0
-233 -345 -361 0
233 345 -361 0
233 -345 361 0
-233 345 361 0
-234 -346 -362 0
234 346 -362 0
234 -346 362 0
-234 346 362 0
-235 -347 -363 0
235 347 -363 0
235 -347 363 0
-235 347 363 0
-236 -348 -364 0
236 348 -364 0
236 -348 364 0
-236 348 364 0
-237 -349 -365 0
237 349 -365 0
237 -349 365 0
-237 349 365 0
-238 -350 -366 0
238 350 -366 0
238 -350 366 0
-238 350 366 0
-239 -351 -367 0
239 351 -367 0
239 -351 367 0
-239 351 367 0
-240 -352 -368 0
240 352 -368 0
240 -352 368 0
-240 352 368 0
-369 353 0
-369 34 0
-353 -34 369 0
-370 354 0
-370 35 0
-354 -35 370 0
-371 355 0
-371 36 0
-355 -36 371 0
-372 356 0
-372 37 0
-356 -37 372 0
-373 357 0
-373 38 0
-357 -38 373 0
-374 358 0
-374 39 0
-358 -39 374 0
-375 359 0
-375 40 0
-359 -40 375 0
-376 360 0
-376 41 0
-360 -41 376 0
-377 361 0
-377 42 0
-361 -42 377 0
-378 362 0
-378 43 0
-362 -43 378 0
-379 363 0
-379 44 0
-363 -44 379 0
-380 364 0
-380 45 0
-364 -45 380 0
-381 365 0
-381 46 0
-365 -46 381 0
-382 366 0
-382 47 0
-366 -47 382 0
-383 367 0
-383 48 0
-367 -48 383 0
-384 368 0
-384 33 0
-368 -33 384 0
-369 -366 -385 0
369 366 -385 0
369 -366 385 0
-369 366 385 0
-370 -367 -386 0
370 367 -386 0
370 -367 386 0
-370 367 386 0
-371 -368 -387 0
371 368 -387 0
371 -368 387 0
-371 368 387 0
-372 -353 -388 0
372 353 -388 0
372 -353 388 0
-372 353 388 0
-373 -354 -389 0
373 354 -389 0
373 -354 389 0
-373 354 389 0
-374 -355 -390 0
374 355 -390 0
374 -355 390 0
-374 355 390 0
-375 -356 -391 0
375 356 -391 0
375 -356 391 0
-375 356 391 0
-376 -357 -392 0
376 357 -392 0
376 -357 392 0
-376 357 392 0
-377 -358 -393 0
377 358 -393 0
377 -358 393 0
-377 358 393 0
-378 -359 -394 0
378 359 -394 0
378 -359 394 0
-378 359 394 0
-379 -360 -395 0
379 360 -395 0
379 -360 395 0
-379 360 395 0
-380 -361 -396 0
380 361 -396 0
380 -361 396 0
-380 361 396 0
-381 -362 -397 0
381 362 -397 0
381 -362 397 0
-381 362 397 0
-382 -363 -398 0
382 363 -398 0
382 -363 398 0
-382 363 398 0
-383 -364 -399 0
383 364 -399 0
383 -364 399 0
-383 364 399 0
-384 -365 -400 0
384 365 -400 0
384 -365 400 0
-384 365 400 0
-385 -34 -401 0
385 34 -401 0
385 -34 401 0
-385 34 401 0
-386 -35 -402 0
386 35 -402 0
386 -35 402 0
-386 35 402 0
-387 -36 -403 0
387 36 -403 0
387 -36 403 0
-387 36 403 0
-388 -37 -404 0
388 37 -404 0
388 -37 404 0
-388 37 404 0
-389 -38 -405 0
389 38 -405 0
389 -38 405 0
-389 38 405 0
-390 -39 -406 0
390 39 -406 0
390 -39 406 0
-390 39 406 0
-391 -40 -407 0
391 40 -407 0
391 -40 407 0
-391 40 407 0
-392 -41 -408 0
392 41 -408 0
392 -41 408 0
-392 41 408 0
-393 -42 -409 0
393 42 -409 0
393 -42 409 0
-393 42 409 0
-394 -43 -410 0
394 43 -410 0
394 -43 410 0
-394 43 410 0
-395 -44 -411 0
395 44 -411 0
395 -44 411 0
-395 44 411 0
-396 -45 -412 0
396 45 -412 0
396 -45 412 0
-396 45 412 0
-397 -46 -413 0
397 46 -413 0
397 -46 413 0
-397 46 413 0
-398 -47 -414 0
398 47 -414 0
398 -47 414 0
-398 47 414 0
-399 -48 -415 0
399 48 -415 0
399 -48 415 0
-399 48 415 0
-400 -33 -416 0
400 33 -416 0
400 -33 416 0
-400 33 416 0
-289 -401 -417 0
289 401 -417 0
289 -401 417 0
-289 401 417 0
-290 -402 -418 0
290 402 -418 0
290 -402 418 0
-290 402 418 0
-291 -403 -419 0
291 403 -419 0
291 -403 419 0
-291 403 419 0
-292 -404 -420 0
292 404 -420 0
292 -404 420 0
-292 404 420 0
-293 -405 -421 0
293 405 -421 0
293 -405 421 0
-293 405 421 0
-294 -406 -422 0
294 406 -422 0
294 -406 422 0
-294 406 422 0
-295 -407 -423 0
295 407 -423 0
295 -407 423 0
-295 407 423 0
-296 -408 -424 0
296 408 -424 0
296 -408 424 0
-296 408 424 0
-297 -409 -425 0
297 409 -425 0
297 -409 425 0
-297 409 425 0
-298 -410 -426 0
298 410 -426 0
298 -410 426 0
-298 410 426 0
-299 -411 -427 0
299 411 -427 0
299 -411 427 0
-299 411 427 0
-300 -412 -428 0
300 412 -428 0
300 -412 428 0
-300 412 428 0
-301 -413 -429 0
301 413 -429 0
301 -413 429 0
-301 413 429 0
-302 -414 -430 0
302 414 -430 0
302 -414 430 0
-302 414 430 0
-303 -415 -431 0
303 415 -431 0
303 -415 431 0
-303 415 431 0
-304 -416 -432 0
304 416 -432 0
304 -416 432 0
-304 416 432 0
-433 417 0
-433 47 0
-417 -47 433 0
-434 418 0
-434 48 0
-418 -48 434 0
-435 419 0
-435 33 0
-419 -33 435 0
-436 420 0
-436 34 0
-420 -34 436 0
-437 421 0
-437 35 0
-421 -35 437 0
-438 422 0
-438 36 0
-422 -36 438 0
-439 423 0
-439 37 0
-423 -37 439 0
-440 424 0
-440 38 0
-424 -38 440 0
-441 425 0
-441 39 0
-425 -39 441 0
-442 426 0
-442 40 0
-426 -40 442 0
-443 427 0
-443 41 0
-427 -41 443 0
-444 428 0
-444 42 0
-428 -42 444 0
-445 429 0
-445 43 0
-429 -43 445 0
-446 430 0
-446 44 0
-430 -44 446 0
-447 431 0
-447 45 0
-431 -45 447 0
-448 432 0
-448 46 0
-432 -46 448 0
-433 -430 -449 0
433 430 -449 0
433 -430 449 0
-433 430 449 0
-434 -431 -450 0
434 431 -450 0
434 -431 450 0
-434 431 450 0
-435 -432 -451 0
435 432 -451 0
435 -432 451 0
-435 432 451 0
-436 -417 -452 0
436 417 -452 0
436 -417 452 0
-436 417 452 0
-437 -418 -453 0
437 418 -453 0
437 -418 453 0
-437 418 453 0
-438 -419 -454 0
438 419 -454 0
438 -419 454 0
-438 419 454 0
-439 -420 -455 0
439 420 -455 0
439 -420 455 0
-439 420 455 0
-440 -421 -456 0
440 421 -456 0
440 -421 456 0
-440 421 456 0
-441 -422 -457 0
441 422 -457 0
441 -422 457 0
-441 422 457 0
-442 -423 -458 0
442 423 -458 0
442 -423 458 0
-442 423 458 0
-443 -424 -459 0
443 424 -459 0
443 -424 459 0
-443 424 459 0
-444 -425 -460 0
444 425 -460 0
444 -425 460 0
-444 425 460 0
-445 -426 -461 0
445 426 -461 0
445 -426 461 0
-445 426 461 0
-446 -427 -462 0
446 427 -462 0
446 -427 462 0
-446 427 462 0
-447 -428 -463 0
447 428 -463 0
447 -428 463 0
-447 428 463 0
-448 -429 -464 0
448 429 -464 0
448 -429 464 0
-448 429 464 0
-449 -47 -465 0
449 47 -465 0
449 -47 465 0
-449 47 465 0
-450 -48 -466 0
450 48 -466 0
450 -48 466 0
-450 48 466 0
-451 -33 -467 0
451 33 -467 0
451 -33 467 0
-451 33 467 0
-452 -34 -468 0
452 34 -468 0
452 -34 468 0
-452 34 468 0
-453 -35 -469 0
453 35 -469 0
453 -35 469 0
-453 35 469 0
-454 -36 -470 0
454 36 -470 0
454 -36 470 0
-454 36 470 0
-455 -37 -471 0
455 37 -471 0
455 -37 471 0
-455 37 471 0
-456 -38 -472 0
456 38 -472 0
456 -38 472 0
-456 38 472 0
-457 -39 -473 0
457 39 -473 0
457 -39 473 0
-457 39 473 0
-458 -40 -474 0
458 40 -474 0
458 -40 474 0
-458 40 474 0
-459 -41 -475 0
459 41 -475 0
459 -41 475 0
-459 41 475 0
-460 -42 -476 0
460 42 -476 0
460 -42 476 0
-460 42 476 0
-461 -43 -477 0
461 43 -477 0
461 -43 477 0
-461 43 477 0
-462 -44 -478 0
462 44 -478 0
462 -44 478 0
-462 44 478 0
-463 -45 -479 0
463 45 -479 0
463 -45 479 0
-463 45 479 0
-464 -46 -480 0
464 46 -480 0
464 -46 480 0
-464 46 480 0
-353 -465 -481 0
353 465 -481 0
353 -465 481 0
-353 465 481 0
-354 -466 -482 0
354 466 -482 0
354 -466 482 0
-354 466 482 0
-355 -467 -483 0
355 467 -483 0
355 -467 483 0
-355 467 483 0
-356 -468 -484 0
356 468 -484 0
356 -468 484 0
-356 468 484 0
-357 -469 -485 0
357 469 -485 0
357 -469 485 0
-357 469 485 0
-358 -470 -486 0
358 470 -486 0
358 -470 486 0
-358 470 486 0
-359 -471 -487 0
359 471 -487 0
359 -471 487 0
-359 471 487 0
-360 -472 -488 0
360 472 -488 0
360 -472 488 0
-360 472 488 0
-361 -473 -489 0
361 473 -489 0
361 -473 489 0
-361 473 489 0
-362 -474 -490 0
362 474 -490 0
362 -474 490 0
-362 474 490 0
-363 -475 -491 0
363 475 -491 0
363 -475 491 0
-363 475 491 0
-364 -476 -492 0
364 476 -492 0
364 -476 492 0
-364 476 492 0
-365 -477 -493 0
365 477 -493 0
365 -477 493 0
-365 477 493 0
-366 -478 -494 0
366 478 -494 0
366 -478 494 0
-366 478 494 0
-367 -479 -495 0
367 479 -495 0
367 -479 495 0
-367 479 495 0
-368 -480 -496 0
368 480 -496 0
368 -480 496 0
-368 480 496 0
-497 481 0
-497 44 0
-481 -44 497 0
-498 482 0
-498 45 0
-482 -45 498 0
-499 483 0
-499 46 0
-483 -46 499 0
-500 484 0
-500 47 0
-484 -47 500 0
-501 485 0
-501 48 0
-485 -48 501 0
-502 486 0
-502 33 0
-486 -33 502 0
-503 487 0
-503 34 0
-487 -34 503 0
-504 488 0
-504 35 0
-488 -35 504 0
-505 489 0
-505 36 0
-489 -36 505 0
-506 490 0
-506 37 0
-490 -37 506 0
-507 491 0
-507 38 0
-491 -38 507 0
-508 492 0
-508 39 0
-492 -39 508 0
-509 493 0
-509 40 0
-493 -40 509 0
-510 494 0
-510 41 0
-494 -41 510 0
-511 495 0
-511 42 0
-495 -42 511 0
-512 496 0
-512 43 0
-496 -43 512 0
-497 -494 -513 0
497 494 -513 0
497 -494 513 0
-497 494 513 0
-498 -495 -514 0
498 495 -514 0
498 -495 514 0
-498 495 514 0
-499 -496 -515 0
499 496 -515 0
499 -496 515 0
-499 496 515 0
-500 -481 -516 0
500 481 -516 0
500 -481 516 0
-500 481 516 0
-501 -482 -517 0
501 482 -517 0
501 -482 517 0
-501 482 517 0
-502 -483 -518 0
502 483 -518 0
502 -483 518 0
-502 483 518 0
-503 -484 -519 0
503 484 -519 0
503 -484 519 0
-503 484 519 0
-504 -485 -520 0
504 485 -520 0
504 -485 520 0
-504 485 520 0
-505 -486 -521 0
505 486 -521 0
505 -486 521 0
-505 486 521 0
-506 -487 -522 0
506 487 -522 0
506 -487 522 0
-506 487 522 0
-507 -488 -523 0
507 488 -523 0
507 -488 523 0
-507 488 523 0
-508 -489 -524 0
508 489 -524 0
508 -489 524 0
-508 489 524 0
-509 -490 -525 0
509 490 -525 0
509 -490 525 0
-509 490 525 0
-510 -491 -526 0
510 491 -526 0
510 -491 526 0
-510 491 526 0
-511 -492 -527 0
511 492 -527 0
511 -492 527 0
-511 492 527 0
-512 -493 -528 0
512 493 -528 0
512 -493 528 0
-512 493 528 0
-513 -44 -529 0
513 44 -529 0
513 -44 529 0
-513 44 529 0
-514 -45 -530 0
514 45 -530 0
514 -45 530 0
-514 45 530 0
-515 -46 -531 0
515 46 -531 0
515 -46 531 0
-515 46 531 0
-516 -47 -532 0
516 47 -532 0
516 -47 532 0
-516 47 532 0
-517 -48 -533 0
517 48 -533 0
517 -48 533 0
-517 48 533 0
-518 -33 -534 0
518 33 -534 0
518 -33 534 0
-518 33 534 0
-519 -34 -535 0
519 34 -535 0
519 -34 535 0
-519 34 535 0
-520 -35 -536 0
520 35 -536 0
520 -35 536 0
-520 35 536 0
-521 -36 -537 0
521 36 -537 0
521 -36 537 0
-521 36 537 0
-522 -37 -538 0
522 37 -538 0
522 -37 538 0
-522 37 538 0
-523 -38 -539 0
523 38 -539 0
523 -38 539 0
-523 38 539 0
-524 -39 -540 0
524 39 -540 0
524 -39 540 0
-524 39 540 0
-525 -40 -541 0
525 40 -541 0
525 -40 541 0
-525 40 541 0
-526 -41 -542 0
526 41 -542 0
526 -41 542 0
-526 41 542 0
-527 -42 -543 0
527 42 -543 0
527 -42 543 0
-527 42 543 0
-528 -43 -544 0
528 43 -544 0
528 -43 544 0
-528 43 544 0
-417 -529 -545 0
417 529 -545 0
417 -529 545 0
-417 529 545 0
-418 -530 -546 0
418 530 -546 0
418 -530 546 0
-418 530 546 0
-419 -531 -547 0
419 531 -547 0
419 -531 547 0
-419 531 547 0
-420 -532 -548 0
420 532 -548 0
420 -532 548 0
-420 532 548 0
-421 -533 -549 0
421 533 -549 0
421 -533 549 0
-421 533 549 0
-422 -534 -550 0
422 534 -550 0
422 -534 550 0
-422 534 550 0
-423 -535 -551 0
423 535 -551 0
423 -535 551 0
-423 535 551 0
-424 -536 -552 0
424 536 -552 0
424 -536 552 0
-424 536 552 0
-425 -537 -553 0
425 537 -553 0
425 -537 553 0
-425 537 553 0
-426 -538 -554 0
426 538 -554 0
426 -538 554 0
-426 538 554 0
-427 -539 -555 0
427 539 -555 0
427 -539 555 0
-427 539 555 0
-428 -540 -556 0
428 540 -556 0
428 -540 556 0
-428 540 556 0
-429 -541 -557 0
429 541 -557 0
429 -541 557 0
-429 541 557 0
-430 -542 -558 0
430 542 -558 0
430 -542 558 0
-430 542 558 0
-431 -543 -559 0
431 543 -559 0
431 -543 559 0
-431 543 559 0
-432 -544 -560 0
432 544 -560 0
432 -544 560 0
-432 544 560 0
-1 0
2 0
-3 0
-4 0
-5 0
6 0
-7 0
8 0
-9 0
-10 0
11 0
-12 0
-13 0
14 0
-15 0
-16 0
17 0
18 0
19 0
-20 0
-21 0
22 0
-23 0
-24 0
-25 0
26 0
-27 0
-28 0
-29 0
30 0
-31 0
-32 0
-545 0
-546 0
547 0
-548 0
-549 0
-550 0
-551 0
552 0
-553 0
554 0
-555 0
556 0
-557 0
-558 0
559 0
560 0
-481 0
-482 0
483 0
-484 0
-485 0
-486 0
-487 0
-488 0
-489 0
-490 0
-491 0
-492 0
493 0
-494 0
-495 0
-496 0
