c Feistel cipher key recovery — XOR-heavy crypto benchmark
c block_size=48 key_size=24 rounds=8 seed=42
c plaintext=0x7763222724a2 key=0xad517d ciphertext=0xb49ab23a67e5
c vars=840 clauses=2976
c Expected: SATISFIABLE (key recovery)
p cnf 840 2976
-73 1 0
-73 49 0
-1 -49 73 0
-74 2 0
-74 50 0
-2 -50 74 0
-75 3 0
-75 51 0
-3 -51 75 0
-76 4 0
-76 52 0
-4 -52 76 0
-77 5 0
-77 53 0
-5 -53 77 0
-78 6 0
-78 54 0
-6 -54 78 0
-79 7 0
-79 55 0
-7 -55 79 0
-80 8 0
-80 56 0
-8 -56 80 0
-81 9 0
-81 57 0
-9 -57 81 0
-82 10 0
-82 58 0
-10 -58 82 0
-83 11 0
-83 59 0
-11 -59 83 0
-84 12 0
-84 60 0
-12 -60 84 0
-85 13 0
-85 61 0
-13 -61 85 0
-86 14 0
-86 62 0
-14 -62 86 0
-87 15 0
-87 63 0
-15 -63 87 0
-88 16 0
-88 64 0
-16 -64 88 0
-89 17 0
-89 65 0
-17 -65 89 0
-90 18 0
-90 66 0
-18 -66 90 0
-91 19 0
-91 67 0
-19 -67 91 0
-92 20 0
-92 68 0
-20 -68 92 0
-93 21 0
-93 69 0
-21 -69 93 0
-94 22 0
-94 70 0
-22 -70 94 0
-95 23 0
-95 71 0
-23 -71 95 0
-96 24 0
-96 72 0
-24 -72 96 0
-73 -22 -97 0
73 22 -97 0
73 -22 97 0
-73 22 97 0
-74 -23 -98 0
74 23 -98 0
74 -23 98 0
-74 23 98 0
-75 -24 -99 0
75 24 -99 0
75 -24 99 0
-75 24 99 0
-76 -1 -100 0
76 1 -100 0
76 -1 100 0
-76 1 100 0
-77 -2 -101 0
77 2 -101 0
77 -2 101 0
-77 2 101 0
-78 -3 -102 0
78 3 -102 0
78 -3 102 0
-78 3 102 0
-79 -4 -103 0
79 4 -103 0
79 -4 103 0
-79 4 103 0
-80 -5 -104 0
80 5 -104 0
80 -5 104 0
-80 5 104 0
-81 -6 -105 0
81 6 -105 0
81 -6 105 0
-81 6 105 0
-82 -7 -106 0
82 7 -106 0
82 -7 106 0
-82 7 106 0
-83 -8 -107 0
83 8 -107 0
83 -8 107 0
-83 8 107 0
-84 -9 -108 0
84 9 -108 0
84 -9 108 0
-84 9 108 0
-85 -10 -109 0
85 10 -109 0
85 -10 109 0
-85 10 109 0
-86 -11 -110 0
86 11 -110 0
86 -11 110 0
-86 11 110 0
-87 -12 -111 0
87 12 -111 0
87 -12 111 0
-87 12 111 0
-88 -13 -112 0
88 13 -112 0
88 -13 112 0
-88 13 112 0
-89 -14 -113 0
89 14 -113 0
89 -14 113 0
-89 14 113 0
-90 -15 -114 0
90 15 -114 0
90 -15 114 0
-90 15 114 0
-91 -16 -115 0
91 16 -115 0
91 -16 115 0
-91 16 115 0
-92 -17 -116 0
92 17 -116 0
92 -17 116 0
-92 17 116 0
-93 -18 -117 0
93 18 -117 0
93 -18 117 0
-93 18 117 0
-94 -19 -118 0
94 19 -118 0
94 -19 118 0
-94 19 118 0
-95 -20 -119 0
95 20 -119 0
95 -20 119 0
-95 20 119 0
-96 -21 -120 0
96 21 -120 0
96 -21 120 0
-96 21 120 0
-97 -49 -121 0
97 49 -121 0
97 -49 121 0
-97 49 121 0
-98 -50 -122 0
98 50 -122 0
98 -50 122 0
-98 50 122 0
-99 -51 -123 0
99 51 -123 0
99 -51 123 0
-99 51 123 0
-100 -52 -124 0
100 52 -124 0
100 -52 124 0
-100 52 124 0
-101 -53 -125 0
101 53 -125 0
101 -53 125 0
-101 53 125 0
-102 -54 -126 0
102 54 -126 0
102 -54 126 0
-102 54 126 0
-103 -55 -127 0
103 55 -127 0
103 -55 127 0
-103 55 127 0
-104 -56 -128 0
104 56 -128 0
104 -56 128 0
-104 56 128 0
-105 -57 -129 0
105 57 -129 0
105 -57 129 0
-105 57 129 0
-106 -58 -130 0
106 58 -130 0
106 -58 130 0
-106 58 130 0
-107 -59 -131 0
107 59 -131 0
107 -59 131 0
-107 59 131 0
-108 -60 -132 0
108 60 -132 0
108 -60 132 0
-108 60 132 0
-109 -61 -133 0
109 61 -133 0
109 -61 133 0
-109 61 133 0
-110 -62 -134 0
110 62 -134 0
110 -62 134 0
-110 62 134 0
-111 -63 -135 0
111 63 -135 0
111 -63 135 0
-111 63 135 0
-112 -64 -136 0
112 64 -136 0
112 -64 136 0
-112 64 136 0
-113 -65 -137 0
113 65 -137 0
113 -65 137 0
-113 65 137 0
-114 -66 -138 0
114 66 -138 0
114 -66 138 0
-114 66 138 0
-115 -67 -139 0
115 67 -139 0
115 -67 139 0
-115 67 139 0
-116 -68 -140 0
116 68 -140 0
116 -68 140 0
-116 68 140 0
-117 -69 -141 0
117 69 -141 0
117 -69 141 0
-117 69 141 0
-118 -70 -142 0
118 70 -142 0
118 -70 142 0
-118 70 142 0
-119 -71 -143 0
119 71 -143 0
119 -71 143 0
-119 71 143 0
-120 -72 -144 0
120 72 -144 0
120 -72 144 0
-120 72 144 0
-25 -121 -145 0
25 121 -145 0
25 -121 145 0
-25 121 145 0
-26 -122 -146 0
26 122 -146 0
26 -122 146 0
-26 122 146 0
-27 -123 -147 0
27 123 -147 0
27 -123 147 0
-27 123 147 0
-28 -124 -148 0
28 124 -148 0
28 -124 148 0
-28 124 148 0
-29 -125 -149 0
29 125 -149 0
29 -125 149 0
-29 125 149 0
-30 -126 -150 0
30 126 -150 0
30 -126 150 0
-30 126 150 0
-31 -127 -151 0
31 127 -151 0
31 -127 151 0
-31 127 151 0
-32 -128 -152 0
32 128 -152 0
32 -128 152 0
-32 128 152 0
-33 -129 -153 0
33 129 -153 0
33 -129 153 0
-33 129 153 0
-34 -130 -154 0
34 130 -154 0
34 -130 154 0
-34 130 154 0
-35 -131 -155 0
35 131 -155 0
35 -131 155 0
-35 131 155 0
-36 -132 -156 0
36 132 -156 0
36 -132 156 0
-36 132 156 0
-37 -133 -157 0
37 133 -157 0
37 -133 157 0
-37 133 157 0
-38 -134 -158 0
38 134 -158 0
38 -134 158 0
-38 134 158 0
-39 -135 -159 0
39 135 -159 0
39 -135 159 0
-39 135 159 0
-40 -136 -160 0
40 136 -160 0
40 -136 160 0
-40 136 160 0
-41 -137 -161 0
41 137 -161 0
41 -137 161 0
-41 137 161 0
-42 -138 -162 0
42 138 -162 0
42 -138 162 0
-42 138 162 0
-43 -139 -163 0
43 139 -163 0
43 -139 163 0
-43 139 163 0
-44 -140 -164 0
44 140 -164 0
44 -140 164 0
-44 140 164 0
-45 -141 -165 0
45 141 -165 0
45 -141 165 0
-45 141 165 0
-46 -142 -166 0
46 142 -166 0
46 -142 166 0
-46 142 166 0
-47 -143 -167 0
47 143 -167 0
47 -143 167 0
-47 143 167 0
-48 -144 -168 0
48 144 -168 0
48 -144 168 0
-48 144 168 0
-169 145 0
-169 70 0
-145 -70 169 0
-170 146 0
-170 71 0
-146 -71 170 0
-171 147 0
-171 72 0
-147 -72 171 0
-172 148 0
-172 49 0
-148 -49 172 0
-173 149 0
-173 50 0
-149 -50 173 0
-174 150 0
-174 51 0
-150 -51 174 0
-175 151 0
-175 52 0
-151 -52 175 0
-176 152 0
-176 53 0
-152 -53 176 0
-177 153 0
-177 54 0
-153 -54 177 0
-178 154 0
-178 55 0
-154 -55 178 0
-179 155 0
-179 56 0
-155 -56 179 0
-180 156 0
-180 57 0
-156 -57 180 0
-181 157 0
-181 58 0
-157 -58 181 0
-182 158 0
-182 59 0
-158 -59 182 0
-183 159 0
-183 60 0
-159 -60 183 0
-184 160 0
-184 61 0
-160 -61 184 0
-185 161 0
-185 62 0
-161 -62 185 0
-186 162 0
-186 63 0
-162 -63 186 0
-187 163 0
-187 64 0
-163 -64 187 0
-188 164 0
-188 65 0
-164 -65 188 0
-189 165 0
-189 66 0
-165 -66 189 0
-190 166 0
-190 67 0
-166 -67 190 0
-191 167 0
-191 68 0
-167 -68 191 0
-192 168 0
-192 69 0
-168 -69 192 0
-169 -166 -193 0
169 166 -193 0
169 -166 193 0
-169 166 193 0
-170 -167 -194 0
170 167 -194 0
170 -167 194 0
-170 167 194 0
-171 -168 -195 0
171 168 -195 0
171 -168 195 0
-171 168 195 0
-172 -145 -196 0
172 145 -196 0
172 -145 196 0
-172 145 196 0
-173 -146 -197 0
173 146 -197 0
173 -146 197 0
-173 146 197 0
-174 -147 -198 0
174 147 -198 0
174 -147 198 0
-174 147 198 0
-175 -148 -199 0
175 148 -199 0
175 -148 199 0
-175 148 199 0
-176 -149 -200 0
176 149 -200 0
176 -149 200 0
-176 149 200 0
-177 -150 -201 0
177 150 -201 0
177 -150 201 0
-177 150 201 0
-178 -151 -202 0
178 151 -202 0
178 -151 202 0
-178 151 202 0
-179 -152 -203 0
179 152 -203 0
179 -152 203 0
-179 152 203 0
-180 -153 -204 0
180 153 -204 0
180 -153 204 0
-180 153 204 0
-181 -154 -205 0
181 154 -205 0
181 -154 205 0
-181 154 205 0
-182 -155 -206 0
182 155 -206 0
182 -155 206 0
-182 155 206 0
-183 -156 -207 0
183 156 -207 0
183 -156 207 0
-183 156 207 0
-184 -157 -208 0
184 157 -208 0
184 -157 208 0
-184 157 208 0
-185 -158 -209 0
185 158 -209 0
185 -158 209 0
-185 158 209 0
-186 -159 -210 0
186 159 -210 0
186 -159 210 0
-186 159 210 0
-187 -160 -211 0
187 160 -211 0
187 -160 211 0
-187 160 211 0
-188 -161 -212 0
188 161 -212 0
188 -161 212 0
-188 161 212 0
-189 -162 -213 0
189 162 -213 0
189 -162 213 0
-189 162 213 0
-190 -163 -214 0
190 163 -214 0
190 -163 214 0
-190 163 214 0
-191 -164 -215 0
191 164 -215 0
191 -164 215 0
-191 164 215 0
-192 -165 -216 0
192 165 -216 0
192 -165 216 0
-192 165 216 0
-193 -70 -217 0
193 70 -217 0
193 -70 217 0
-193 70 217 0
-194 -71 -218 0
194 71 -218 0
194 -71 218 0
-194 71 218 0
-195 -72 -219 0
195 72 -219 0
195 -72 219 0
-195 72 219 0
-196 -49 -220 0
196 49 -220 0
196 -49 220 0
-196 49 220 0
-197 -50 -221 0
197 50 -221 0
197 -50 221 0
-197 50 221 0
-198 -51 -222 0
198 51 -222 0
198 -51 222 0
-198 51 222 0
-199 -52 -223 0
199 52 -223 0
199 -52 223 0
-199 52 223 0
-200 -53 -224 0
200 53 -224 0
200 -53 224 0
-200 53 224 0
-201 -54 -225 0
201 54 -225 0
201 -54 225 0
-201 54 225 0
-202 -55 -226 0
202 55 -226 0
202 -55 226 0
-202 55 226 0
-203 -56 -227 0
203 56 -227 0
203 -56 227 0
-203 56 227 0
-204 -57 -228 0
204 57 -228 0
204 -57 228 0
-204 57 228 0
-205 -58 -229 0
205 58 -229 0
205 -58 229 0
-205 58 229 0
-206 -59 -230 0
206 59 -230 0
206 -59 230 0
-206 59 230 0
-207 -60 -231 0
207 60 -231 0
207 -60 231 0
-207 60 231 0
-208 -61 -232 0
208 61 -232 0
208 -61 232 0
-208 61 232 0
-209 -62 -233 0
209 62 -233 0
209 -62 233 0
-209 62 233 0
-210 -63 -234 0
210 63 -234 0
210 -63 234 0
-210 63 234 0
-211 -64 -235 0
211 64 -235 0
211 -64 235 0
-211 64 235 0
-212 -65 -236 0
212 65 -236 0
212 -65 236 0
-212 65 236 0
-213 -66 -237 0
213 66 -237 0
213 -66 237 0
-213 66 237 0
-214 -67 -238 0
214 67 -238 0
214 -67 238 0
-214 67 238 0
-215 -68 -239 0
215 68 -239 0
215 -68 239 0
-215 68 239 0
-216 -69 -240 0
216 69 -240 0
216 -69 240 0
-216 69 240 0
-1 -217 -241 0
1 217 -241 0
1 -217 241 0
-1 217 241 0
-2 -218 -242 0
2 218 -242 0
2 -218 242 0
-2 218 242 0
-3 -219 -243 0
3 219 -243 0
3 -219 243 0
-3 219 243 0
-4 -220 -244 0
4 220 -244 0
4 -220 244 0
-4 220 244 0
-5 -221 -245 0
5 221 -245 0
5 -221 245 0
-5 221 245 0
-6 -222 -246 0
6 222 -246 0
6 -222 246 0
-6 222 246 0
-7 -223 -247 0
7 223 -247 0
7 -223 247 0
-7 223 247 0
-8 -224 -248 0
8 224 -248 0
8 -224 248 0
-8 224 248 0
-9 -225 -249 0
9 225 -249 0
9 -225 249 0
-9 225 249 0
-10 -226 -250 0
10 226 -250 0
10 -226 250 0
-10 226 250 0
-11 -227 -251 0
11 227 -251 0
11 -227 251 0
-11 227 251 0
-12 -228 -252 0
12 228 -252 0
12 -228 252 0
-12 228 252 0
-13 -229 -253 0
13 229 -253 0
13 -229 253 0
-13 229 253 0
-14 -230 -254 0
14 230 -254 0
14 -230 254 0
-14 230 254 0
-15 -231 -255 0
15 231 -255 0
15 -231 255 0
-15 231 255 0
-16 -232 -256 0
16 232 -256 0
16 -232 256 0
-16 232 256 0
-17 -233 -257 0
17 233 -257 0
17 -233 257 0
-17 233 257 0
-18 -234 -258 0
18 234 -258 0
18 -234 258 0
-18 234 258 0
-19 -235 -259 0
19 235 -259 0
19 -235 259 0
-19 235 259 0
-20 -236 -260 0
20 236 -260 0
20 -236 260 0
-20 236 260 0
-21 -237 -261 0
21 237 -261 0
21 -237 261 0
-21 237 261 0
-22 -238 -262 0
22 238 -262 0
22 -238 262 0
-22 238 262 0
-23 -239 -263 0
23 239 -263 0
23 -239 263 0
-23 239 263 0
-24 -240 -264 0
24 240 -264 0
24 -240 264 0
-24 240 264 0
-265 241 0
-265 67 0
-241 -67 265 0
-266 242 0
-266 68 0
-242 -68 266 0
-267 243 0
-267 69 0
-243 -69 267 0
-268 244 0
-268 70 0
-244 -70 268 0
-269 245 0
-269 71 0
-245 -71 269 0
-270 246 0
-270 72 0
-246 -72 270 0
-271 247 0
-271 49 0
-247 -49 271 0
-272 248 0
-272 50 0
-248 -50 272 0
-273 249 0
-273 51 0
-249 -51 273 0
-274 250 0
-274 52 0
-250 -52 274 0
-275 251 0
-275 53 0
-251 -53 275 0
-276 252 0
-276 54 0
-252 -54 276 0
-277 253 0
-277 55 0
-253 -55 277 0
-278 254 0
-278 56 0
-254 -56 278 0
-279 255 0
-279 57 0
-255 -57 279 0
-280 256 0
-280 58 0
-256 -58 280 0
-281 257 0
-281 59 0
-257 -59 281 0
-282 258 0
-282 60 0
-258 -60 282 0
-283 259 0
-283 61 0
-259 -61 283 0
-284 260 0
-284 62 0
-260 -62 284 0
-285 261 0
-285 63 0
-261 -63 285 0
-286 262 0
-286 64 0
-262 -64 286 0
-287 263 0
-287 65 0
-263 -65 287 0
-288 264 0
-288 66 0
-264 -66 288 0
-265 -262 -289 0
265 262 -289 0
265 -262 289 0
-265 262 289 0
-266 -263 -290 0
266 263 -290 0
266 -263 290 0
-266 263 290 0
-267 -264 -291 0
267 264 -291 0
267 -264 291 0
-267 264 291 0
-268 -241 -292 0
268 241 -292 0
268 -241 292 0
-268 241 292 0
-269 -242 -293 0
269 242 -293 0
269 -242 293 0
-269 242 293 0
-270 -243 -294 0
270 243 -294 0
270 -243 294 0
-270 243 294 0
-271 -244 -295 0
271 244 -295 0
271 -244 295 0
-271 244 295 0
-272 -245 -296 0
272 245 -296 0
272 -245 296 0
-272 245 296 0
-273 -246 -297 0
273 246 -297 0
273 -246 297 0
-273 246 297 0
-274 -247 -298 0
274 247 -298 0
274 -247 298 0
-274 247 298 0
-275 -248 -299 0
275 248 -299 0
275 -248 299 0
-275 248 299 0
-276 -249 -300 0
276 249 -300 0
276 -249 300 0
-276 249 300 0
-277 -250 -301 0
277 250 -301 0
277 -250 301 0
-277 250 301 0
-278 -251 -302 0
278 251 -302 0
278 -251 302 0
-278 251 302 0
-279 -252 -303 0
279 252 -303 0
279 -252 303 0
-279 252 303 0
-280 -253 -304 0
280 253 -304 0
280 -253 304 0
-280 253 304 0
-281 -254 -305 0
281 254 -305 0
281 -254 305 0
-281 254 305 0
-282 -255 -306 0
282 255 -306 0
282 -255 306 0
-282 255 306 0
-283 -256 -307 0
283 256 -307 0
283 -256 307 0
-283 256 307 0
-284 -257 -308 0
284 257 -308 0
284 -257 308 0
-284 257 308 0
-285 -258 -309 0
285 258 -309 0
285 -258 309 0
-285 258 309 0
-286 -259 -310 0
286 259 -310 0
286 -259 310 0
-286 259 310 0
-287 -260 -311 0
287 260 -311 0
287 -260 311 0
-287 260 311 0
-288 -261 -312 0
288 261 -312 0
288 -261 312 0
-288 261 312 0
-289 -67 -313 0
289 67 -313 0
289 -67 313 0
-289 67 313 0
-290 -68 -314 0
290 68 -314 0
290 -68 314 0
-290 68 314 0
-291 -69 -315 0
291 69 -315 0
291 -69 315 0
-291 69 315 0
-292 -70 -316 0
292 70 -316 0
292 -70 316 0
-292 70 316 0
-293 -71 -317 0
293 71 -317 0
293 -71 317 0
-293 71 317 0
-294 -72 -318 0
294 72 -318 0
294 -72 318 0
-294 72 318 0
-295 -49 -319 0
295 49 -319 0
295 -49 319 0
-295 49 319 0
-296 -50 -320 0
296 50 -320 0
296 -50 320 0
-296 50 320 0
-297 -51 -321 0
297 51 -321 0
297 -51 321 0
-297 51 321 0
-298 -52 -322 0
298 52 -322 0
298 -52 322 0
-298 52 322 0
-299 -53 -323 0
299 53 -323 0
299 -53 323 0
-299 53 323 0
-300 -54 -324 0
300 54 -324 0
300 -54 324 0
-300 54 324 0
-301 -55 -325 0
301 55 -325 0
301 -55 325 0
-301 55 325 0
-302 -56 -326 0
302 56 -326 0
302 -56 326 0
-302 56 326 0
-303 -57 -327 0
303 57 -327 0
303 -57 327 0
-303 57 327 0
-304 -58 -328 0
304 58 -328 0
304 -58 328 0
-304 58 328 0
-305 -59 -329 0
305 59 -329 0
305 -59 329 0
-305 59 329 0
-306 -60 -330 0
306 60 -330 0
306 -60 330 0
-306 60 330 0
-307 -61 -331 0
307 61 -331 0
307 -61 331 0
-307 61 331 0
-308 -62 -332 0
308 62 -332 0
308 -62 332 0
-308 62 332 0
-309 -63 -333 0
309 63 -333 0
309 -63 333 0
-309 63 333 0
-310 -64 -334 0
310 64 -334 0
310 -64 334 0
-310 64 334 0
-311 -65 -335 0
311 65 -335 0
311 -65 335 0
-311 65 335 0
-312 -66 -336 0
312 66 -336 0
312 -66 336 0
-312 66 336 0
-145 -313 -337 0
145 313 -337 0
145 -313 337 0
-145 313 337 0
-146 -314 -338 0
146 314 -338 0
146 -314 338 0
-146 314 338 0
-147 -315 -339 0
147 315 -339 0
147 -315 339 0
-147 315 339 0
-148 -316 -340 0
148 316 -340 0
148 -316 340 0
-148 316 340 0
-149 -317 -341 0
149 317 -341 0
149 -317 341 0
-149 317 341 0
-150 -318 -342 0
150 318 -342 0
150 -318 342 0
-150 318 342 0
-151 -319 -343 0
151 319 -343 0
151 -319 343 0
-151 319 343 0
-152 -320 -344 0
152 320 -344 0
152 -320 344 0
-152 320 344 0
-153 -321 -345 0
153 321 -345 0
153 -321 345 0
-153 321 345 0
-154 -322 -346 0
154 322 -346 0
154 -322 346 0
-154 322 346 0
-155 -323 -347 0
155 323 -347 0
155 -323 347 0
-155 323 347 0
-156 -324 -348 0
156 324 -348 0
156 -324 348 0
-156 324 348 0
-157 -325 -349 0
157 325 -349 0
157 -325 349 0
-157 325 349 0
-158 -326 -350 0
158 326 -350 0
158 -326 350 0
-158 326 350 0
-159 -327 -351 0
159 327 -351 0
159 -327 351 0
-159 327 351 0
-160 -328 -352 0
160 328 -352 0
160 -328 352 0
-160 328 352 0
-161 -329 -353 0
161 329 -353 0
161 -329 353 0
-161 329 353 0
-162 -330 -354 0
162 330 -354 0
162 -330 354 0
-162 330 354 0
-163 -331 -355 0
163 331 -355 0
163 -331 355 0
-163 331 355 0
-164 -332 -356 0
164 332 -356 0
164 -332 356 0
-164 332 356 0
-165 -333 -357 0
165 333 -357 0
165 -333 357 0
-165 333 357 0
-166 -334 -358 0
166 334 -358 0
166 -334 358 0
-166 334 358 0
-167 -335 -359 0
167 335 -359 0
167 -335 359 0
-167 335 359 0
-168 -336 -360 0
168 336 -360 0
168 -336 360 0
-168 336 360 0
-361 337 0
-361 64 0
-337 -64 361 0
-362 338 0
-362 65 0
-338 -65 362 0
-363 339 0
-363 66 0
-339 -66 363 0
-364 340 0
-364 67 0
-340 -67 364 0
-365 341 0
-365 68 0
-341 -68 365 0
-366 342 0
-366 69 0
-342 -69 366 0
-367 343 0
-367 70 0
-343 -70 367 0
-368 344 0
-368 71 0
-344 -71 368 0
-369 345 0
-369 72 0
-345 -72 369 0
-370 346 0
-370 49 0
-346 -49 370 0
-371 347 0
-371 50 0
-347 -50 371 0
-372 348 0
-372 51 0
-348 -51 372 0
-373 349 0
-373 52 0
-349 -52 373 0
-374 350 0
-374 53 0
-350 -53 374 0
-375 351 0
-375 54 0
-351 -54 375 0
-376 352 0
-376 55 0
-352 -55 376 0
-377 353 0
-377 56 0
-353 -56 377 0
-378 354 0
-378 57 0
-354 -57 378 0
-379 355 0
-379 58 0
-355 -58 379 0
-380 356 0
-380 59 0
-356 -59 380 0
-381 357 0
-381 60 0
-357 -60 381 0
-382 358 0
-382 61 0
-358 -61 382 0
-383 359 0
-383 62 0
-359 -62 383 0
-384 360 0
-384 63 0
-360 -63 384 0
-361 -358 -385 0
361 358 -385 0
361 -358 385 0
-361 358 385 0
-362 -359 -386 0
362 359 -386 0
362 -359 386 0
-362 359 386 0
-363 -360 -387 0
363 360 -387 0
363 -360 387 0
-363 360 387 0
-364 -337 -388 0
364 337 -388 0
364 -337 388 0
-364 337 388 0
-365 -338 -389 0
365 338 -389 0
365 -338 389 0
-365 338 389 0
-366 -339 -390 0
366 339 -390 0
366 -339 390 0
-366 339 390 0
-367 -340 -391 0
367 340 -391 0
367 -340 391 0
-367 340 391 0
-368 -341 -392 0
368 341 -392 0
368 -341 392 0
-368 341 392 0
-369 -342 -393 0
369 342 -393 0
369 -342 393 0
-369 342 393 0
-370 -343 -394 0
370 343 -394 0
370 -343 394 0
-370 343 394 0
-371 -344 -395 0
371 344 -395 0
371 -344 395 0
-371 344 395 0
-372 -345 -396 0
372 345 -396 0
372 -345 396 0
-372 345 396 0
-373 -346 -397 0
373 346 -397 0
373 -346 397 0
-373 346 397 0
-374 -347 -398 0
374 347 -398 0
374 -347 398 0
-374 347 398 0
-375 -348 -399 0
375 348 -399 0
375 -348 399 0
-375 348 399 0
-376 -349 -400 0
376 349 -400 0
376 -349 400 0
-376 349 400 0
-377 -350 -401 0
377 350 -401 0
377 -350 401 0
-377 350 401 0
-378 -351 -402 0
378 351 -402 0
378 -351 402 0
-378 351 402 0
-379 -352 -403 0
379 352 -403 0
379 -352 403 0
-379 352 403 0
-380 -353 -404 0
380 353 -404 0
380 -353 404 0
-380 353 404 0
-381 -354 -405 0
381 354 -405 0
381 -354 405 0
-381 354 405 0
-382 -355 -406 0
382 355 -406 0
382 -355 406 0
-382 355 406 0
-383 -356 -407 0
383 356 -407 0
383 -356 407 0
-383 356 407 0
-384 -357 -408 0
384 357 -408 0
384 -357 408 0
-384 357 408 0
-385 -64 -409 0
385 64 -409 0
385 -64 409 0
-385 64 409 0
-386 -65 -410 0
386 65 -410 0
386 -65 410 0
-386 65 410 0
-387 -66 -411 0
387 66 -411 0
387 -66 411 0
-387 66 411 0
-388 -67 -412 0
388 67 -412 0
388 -67 412 0
-388 67 412 0
-389 -68 -413 0
389 68 -413 0
389 -68 413 0
-389 68 413 0
-390 -69 -414 0
390 69 -414 0
390 -69 414 0
-390 69 414 0
-391 -70 -415 0
391 70 -415 0
391 -70 415 0
-391 70 415 0
-392 -71 -416 0
392 71 -416 0
392 -71 416 0
-392 71 416 0
-393 -72 -417 0
393 72 -417 0
393 -72 417 0
-393 72 417 0
-394 -49 -418 0
394 49 -418 0
394 -49 418 0
-394 49 418 0
-395 -50 -419 0
395 50 -419 0
395 -50 419 0
-395 50 419 0
-396 -51 -420 0
396 51 -420 0
396 -51 420 0
-396 51 420 0
-397 -52 -421 0
397 52 -421 0
397 -52 421 0
-397 52 421 0
-398 -53 -422 0
398 53 -422 0
398 -53 422 0
-398 53 422 0
-399 -54 -423 0
399 54 -423 0
399 -54 423 0
-399 54 423 0
-400 -55 -424 0
400 55 -424 0
400 -55 424 0
-400 55 424 0
-401 -56 -425 0
401 56 -425 0
401 -56 425 0
-401 56 425 0
-402 -57 -426 0
402 57 -426 0
402 -57 426 0
-402 57 426 0
-403 -58 -427 0
403 58 -427 0
403 -58 427 0
-403 58 427 0
-404 -59 -428 0
404 59 -428 0
404 -59 428 0
-404 59 428 0
-405 -60 -429 0
405 60 -429 0
405 -60 429 0
-405 60 429 0
-406 -61 -430 0
406 61 -430 0
406 -61 430 0
-406 61 430 0
-407 -62 -431 0
407 62 -431 0
407 -62 431 0
-407 62 431 0
-408 -63 -432 0
408 63 -432 0
408 -63 432 0
-408 63 432 0
-241 -409 -433 0
241 409 -433 0
241 -409 433 0
-241 409 433 0
-242 -410 -434 0
242 410 -434 0
242 -410 434 0
-242 410 434 0
-243 -411 -435 0
243 411 -435 0
243 -411 435 0
-243 411 435 0
-244 -412 -436 0
244 412 -436 0
244 -412 436 0
-244 412 436 0
-245 -413 -437 0
245 413 -437 0
245 -413 437 0
-245 413 437 0
-246 -414 -438 0
246 414 -438 0
246 -414 438 0
-246 414 438 0
-247 -415 -439 0
247 415 -439 0
247 -415 439 0
-247 415 439 0
-248 -416 -440 0
248 416 -440 0
248 -416 440 0
-248 416 440 0
-249 -417 -441 0
249 417 -441 0
249 -417 441 0
-249 417 441 0
-250 -418 -442 0
250 418 -442 0
250 -418 442 0
-250 418 442 0
-251 -419 -443 0
251 419 -443 0
251 -419 443 0
-251 419 443 0
-252 -420 -444 0
252 420 -444 0
252 -420 444 0
-252 420 444 0
-253 -421 -445 0
253 421 -445 0
253 -421 445 0
-253 421 445 0
-254 -422 -446 0
254 422 -446 0
254 -422 446 0
-254 422 446 0
-255 -423 -447 0
255 423 -447 0
255 -423 447 0
-255 423 447 0
-256 -424 -448 0
256 424 -448 0
256 -424 448 0
-256 424 448 0
-257 -425 -449 0
257 425 -449 0
257 -425 449 0
-257 425 449 0
-258 -426 -450 0
258 426 -450 0
258 -426 450 0
-258 426 450 0
-259 -427 -451 0
259 427 -451 0
259 -427 451 0
-259 427 451 0
-260 -428 -452 0
260 428 -452 0
260 -428 452 0
-260 428 452 0
-261 -429 -453 0
261 429 -453 0
261 -429 453 0
-261 429 453 0
-262 -430 -454 0
262 430 -454 0
262 -430 454 0
-262 430 454 0
-263 -431 -455 0
263 431 -455 0
263 -431 455 0
-263 431 455 0
-264 -432 -456 0
264 432 -456 0
264 -432 456 0
-264 432 456 0
-457 433 0
-457 61 0
-433 -61 457 0
-458 434 0
-458 62 0
-434 -62 458 0
-459 435 0
-459 63 0
-435 -63 459 0
-460 436 0
-460 64 0
-436 -64 460 0
-461 437 0
-461 65 0
-437 -65 461 0
-462 438 0
-462 66 0
-438 -66 462 0
-463 439 0
-463 67 0
-439 -67 463 0
-464 440 0
-464 68 0
-440 -68 464 0
-465 441 0
-465 69 0
-441 -69 465 0
-466 442 0
-466 70 0
-442 -70 466 0
-467 443 0
-467 71 0
-443 -71 467 0
-468 444 0
-468 72 0
-444 -72 468 0
-469 445 0
-469 49 0
-445 -49 469 0
-470 446 0
-470 50 0
-446 -50 470 0
-471 447 0
-471 51 0
-447 -51 471 0
-472 448 0
-472 52 0
-448 -52 472 0
-473 449 0
-473 53 0
-449 -53 473 0
-474 450 0
-474 54 0
-450 -54 474 0
-475 451 0
-475 55 0
-451 -55 475 0
-476 452 0
-476 56 0
-452 -56 476 0
-477 453 0
-477 57 0
-453 -57 477 0
-478 454 0
-478 58 0
-454 -58 478 0
-479 455 0
-479 59 0
-455 -59 479 0
-480 456 0
-480 60 0
-456 -60 480 0
-457 -454 -481 0
457 454 -481 0
457 -454 481 0
-457 454 481 0
-458 -455 -482 0
458 455 -482 0
458 -455 482 0
-458 455 482 0
-459 -456 -483 0
459 456 -483 0
459 -456 483 0
-459 456 483 0
-460 -433 -484 0
460 433 -484 0
460 -433 484 0
-460 433 484 0
-461 -434 -485 0
461 434 -485 0
461 -434 485 0
-461 434 485 0
-462 -435 -486 0
462 435 -486 0
462 -435 486 0
-462 435 486 0
-463 -436 -487 0
463 436 -487 0
463 -436 487 0
-463 436 487 0
-464 -437 -488 0
464 437 -488 0
464 -437 488 0
-464 437 488 0
-465 -438 -489 0
465 438 -489 0
465 -438 489 0
-465 438 489 0
-466 -439 -490 0
466 439 -490 0
466 -439 490 0
-466 439 490 0
-467 -440 -491 0
467 440 -491 0
467 -440 491 0
-467 440 491 0
-468 -441 -492 0
468 441 -492 0
468 -441 492 0
-468 441 492 0
-469 -442 -493 0
469 442 -493 0
469 -442 493 0
-469 442 493 0
-470 -443 -494 0
470 443 -494 0
470 -443 494 0
-470 443 494 0
-471 -444 -495 0
471 444 -495 0
471 -444 495 0
-471 444 495 0
-472 -445 -496 0
472 445 -496 0
472 -445 496 0
-472 445 496 0
-473 -446 -497 0
473 446 -497 0
473 -446 497 0
-473 446 497 0
-474 -447 -498 0
474 447 -498 0
474 -447 498 0
-474 447 498 0
-475 -448 -499 0
475 448 -499 0
475 -448 499 0
-475 448 499 0
-476 -449 -500 0
476 449 -500 0
476 -449 500 0
-476 449 500 0
-477 -450 -501 0
477 450 -501 0
477 -450 501 0
-477 450 501 0
-478 -451 -502 0
478 451 -502 0
478 -451 502 0
-478 451 502 0
-479 -452 -503 0
479 452 -503 0
479 -452 503 0
-479 452 503 0
-480 -453 -504 0
480 453 -504 0
480 -453 504 0
-480 453 504 0
-481 -61 -505 0
481 61 -505 0
481 -61 505 0
-481 61 505 0
-482 -62 -506 0
482 62 -506 0
482 -62 506 0
-482 62 506 0
-483 -63 -507 0
483 63 -507 0
483 -63 507 0
-483 63 507 0
-484 -64 -508 0
484 64 -508 0
484 -64 508 0
-484 64 508 0
-485 -65 -509 0
485 65 -509 0
485 -65 509 0
-485 65 509 0
-486 -66 -510 0
486 66 -510 0
486 -66 510 0
-486 66 510 0
-487 -67 -511 0
487 67 -511 0
487 -67 511 0
-487 67 511 0
-488 -68 -512 0
488 68 -512 0
488 -68 512 0
-488 68 512 0
-489 -69 -513 0
489 69 -513 0
489 -69 513 0
-489 69 513 0
-490 -70 -514 0
490 70 -514 0
490 -70 514 0
-490 70 514 0
-491 -71 -515 0
491 71 -515 0
491 -71 515 0
-491 71 515 0
-492 -72 -516 0
492 72 -516 0
492 -72 516 0
-492 72 516 0
-493 -49 -517 0
493 49 -517 0
493 -49 517 0
-493 49 517 0
-494 -50 -518 0
494 50 -518 0
494 -50 518 0
-494 50 518 0
-495 -51 -519 0
495 51 -519 0
495 -51 519 0
-495 51 519 0
-496 -52 -520 0
496 52 -520 0
496 -52 520 0
-496 52 520 0
-497 -53 -521 0
497 53 -521 0
497 -53 521 0
-497 53 521 0
-498 -54 -522 0
498 54 -522 0
498 -54 522 0
-498 54 522 0
-499 -55 -523 0
499 55 -523 0
499 -55 523 0
-499 55 523 0
-500 -56 -524 0
500 56 -524 0
500 -56 524 0
-500 56 524 0
-501 -57 -525 0
501 57 -525 0
501 -57 525 0
-501 57 525 0
-502 -58 -526 0
502 58 -526 0
502 -58 526 0
-502 58 526 0
-503 -59 -527 0
503 59 -527 0
503 -59 527 0
-503 59 527 0
-504 -60 -528 0
504 60 -528 0
504 -60 528 0
-504 60 528 0
-337 -505 -529 0
337 505 -529 0
337 -505 529 0
-337 505 529 0
-338 -506 -530 0
338 506 -530 0
338 -506 530 0
-338 506 530 0
-339 -507 -531 0
339 507 -531 0
339 -507 531 0
-339 507 531 0
-340 -508 -532 0
340 508 -532 0
340 -508 532 0
-340 508 532 0
-341 -509 -533 0
341 509 -533 0
341 -509 533 0
-341 509 533 0
-342 -510 -534 0
342 510 -534 0
342 -510 534 0
-342 510 534 0
-343 -511 -535 0
343 511 -535 0
343 -511 535 0
-343 511 535 0
-344 -512 -536 0
344 512 -536 0
344 -512 536 0
-344 512 536 0
-345 -513 -537 0
345 513 -537 0
345 -513 537 0
-345 513 537 0
-346 -514 -538 0
346 514 -538 0
346 -514 538 0
-346 514 538 0
-347 -515 -539 0
347 515 -539 0
347 -515 539 0
-347 515 539 0
-348 -516 -540 0
348 516 -540 0
348 -516 540 0
-348 516 540 0
-349 -517 -541 0
349 517 -541 0
349 -517 541 0
-349 517 541 0
-350 -518 -542 0
350 518 -542 0
350 -518 542 0
-350 518 542 0
-351 -519 -543 0
351 519 -543 0
351 -519 543 0
-351 519 543 0
-352 -520 -544 0
352 520 -544 0
352 -520 544 0
-352 520 544 0
-353 -521 -545 0
353 521 -545 0
353 -521 545 0
-353 521 545 0
-354 -522 -546 0
354 522 -546 0
354 -522 546 0
-354 522 546 0
-355 -523 -547 0
355 523 -547 0
355 -523 547 0
-355 523 547 0
-356 -524 -548 0
356 524 -548 0
356 -524 548 0
-356 524 548 0
-357 -525 -549 0
357 525 -549 0
357 -525 549 0
-357 525 549 0
-358 -526 -550 0
358 526 -550 0
358 -526 550 0
-358 526 550 0
-359 -527 -551 0
359 527 -551 0
359 -527 551 0
-359 527 551 0
-360 -528 -552 0
360 528 -552 0
360 -528 552 0
-360 528 552 0
-553 529 0
-553 58 0
-529 -58 553 0
-554 530 0
-554 59 0
-530 -59 554 0
-555 531 0
-555 60 0
-531 -60 555 0
-556 532 0
-556 61 0
-532 -61 556 0
-557 533 0
-557 62 0
-533 -62 557 0
-558 534 0
-558 63 0
-534 -63 558 0
-559 535 0
-559 64 0
-535 -64 559 0
-560 536 0
-560 65 0
-536 -65 560 0
-561 537 0
-561 66 0
-537 -66 561 0
-562 538 0
-562 67 0
-538 -67 562 0
-563 539 0
-563 68 0
-539 -68 563 0
-564 540 0
-564 69 0
-540 -69 564 0
-565 541 0
-565 70 0
-541 -70 565 0
-566 542 0
-566 71 0
-542 -71 566 0
-567 543 0
-567 72 0
-543 -72 567 0
-568 544 0
-568 49 0
-544 -49 568 0
-569 545 0
-569 50 0
-545 -50 569 0
-570 546 0
-570 51 0
-546 -51 570 0
-571 547 0
-571 52 0
-547 -52 571 0
-572 548 0
-572 53 0
-548 -53 572 0
-573 549 0
-573 54 0
-549 -54 573 0
-574 550 0
-574 55 0
-550 -55 574 0
-575 551 0
-575 56 0
-551 -56 575 0
-576 552 0
-576 57 0
-552 -57 576 0
-553 -550 -577 0
553 550 -577 0
553 -550 577 0
-553 550 577 0
-554 -551 -578 0
554 551 -578 0
554 -551 578 0
-554 551 578 0
-555 -552 -579 0
555 552 -579 0
555 -552 579 0
-555 552 579 0
-556 -529 -580 0
556 529 -580 0
556 -529 580 0
-556 529 580 0
-557 -530 -581 0
557 530 -581 0
557 -530 581 0
-557 530 581 0
-558 -531 -582 0
558 531 -582 0
558 -531 582 0
-558 531 582 0
-559 -532 -583 0
559 532 -583 0
559 -532 583 0
-559 532 583 0
-560 -533 -584 0
560 533 -584 0
560 -533 584 0
-560 533 584 0
-561 -534 -585 0
561 534 -585 0
561 -534 585 0
-561 534 585 0
-562 -535 -586 0
562 535 -586 0
562 -535 586 0
-562 535 586 0
-563 -536 -587 0
563 536 -587 0
563 -536 587 0
-563 536 587 0
-564 -537 -588 0
564 537 -588 0
564 -537 588 0
-564 537 588 0
-565 -538 -589 0
565 538 -589 0
565 -538 589 0
-565 538 589 0
-566 -539 -590 0
566 539 -590 0
566 -539 590 0
-566 539 590 0
-567 -540 -591 0
567 540 -591 0
567 -540 591 0
-567 540 591 0
-568 -541 -592 0
568 541 -592 0
568 -541 592 0
-568 541 592 0
-569 -542 -593 0
569 542 -593 0
569 -542 593 0
-569 542 593 0
-570 -543 -594 0
570 543 -594 0
570 -543 594 0
-570 543 594 0
-571 -544 -595 0
571 544 -595 0
571 -544 595 0
-571 544 595 0
-572 -545 -596 0
572 545 -596 0
572 -545 596 0
-572 545 596 0
-573 -546 -597 0
573 546 -597 0
573 -546 597 0
-573 546 597 0
-574 -547 -598 0
574 547 -598 0
574 -547 598 0
-574 547 598 0
-575 -548 -599 0
575 548 -599 0
575 -548 599 0
-575 548 599 0
-576 -549 -600 0
576 549 -600 0
576 -549 600 0
-576 549 600 0
-577 -58 -601 0
577 58 -601 0
577 -58 601 0
-577 58 601 0
-578 -59 -602 0
578 59 -602 0
578 -59 602 0
-578 59 602 0
-579 -60 -603 0
579 60 -603 0
579 -60 603 0
-579 60 603 0
-580 -61 -604 0
580 61 -604 0
580 -61 604 0
-580 61 604 0
-581 -62 -605 0
581 62 -605 0
581 -62 605 0
-581 62 605 0
-582 -63 -606 0
582 63 -606 0
582 -63 606 0
-582 63 606 0
-583 -64 -607 0
583 64 -607 0
583 -64 607 0
-583 64 607 0
-584 -65 -608 0
584 65 -608 0
584 -65 608 0
-584 65 608 0
-585 -66 -609 0
585 66 -609 0
585 -66 609 0
-585 66 609 0
-586 -67 -610 0
586 67 -610 0
586 -67 610 0
-586 67 610 0
-587 -68 -611 0
587 68 -611 0
587 -68 611 0
-587 68 611 0
-588 -69 -612 0
588 69 -612 0
588 -69 612 0
-588 69 612 0
-589 -70 -613 0
589 70 -613 0
589 -70 613 0
-589 70 613 0
-590 -71 -614 0
590 71 -614 0
590 -71 614 0
-590 71 614 0
-591 -72 -615 0
591 72 -615 0
591 -72 615 0
-591 72 615 0
-592 -49 -616 0
592 49 -616 0
592 -49 616 0
-592 49 616 0
-593 -50 -617 0
593 50 -617 0
593 -50 617 0
-593 50 617 0
-594 -51 -618 0
594 51 -618 0
594 -51 618 0
-594 51 618 0
-595 -52 -619 0
595 52 -619 0
595 -52 619 0
-595 52 619 0
-596 -53 -620 0
596 53 -620 0
596 -53 620 0
-596 53 620 0
-597 -54 -621 0
597 54 -621 0
597 -54 621 0
-597 54 621 0
-598 -55 -622 0
598 55 -622 0
598 -55 622 0
-598 55 622 0
-599 -56 -623 0
599 56 -623 0
599 -56 623 0
-599 56 623 0
-600 -57 -624 0
600 57 -624 0
600 -57 624 0
-600 57 624 0
-433 -601 -625 0
433 601 -625 0
433 -601 625 0
-433 601 625 0
-434 -602 -626 0
434 602 -626 0
434 -602 626 0
-434 602 626 0
-435 -603 -627 0
435 603 -627 0
435 -603 627 0
-435 603 627 0
-436 -604 -628 0
436 604 -628 0
436 -604 628 0
-436 604 628 0
-437 -605 -629 0
437 605 -629 0
437 -605 629 0
-437 605 629 0
-438 -606 -630 0
438 606 -630 0
438 -606 630 0
-438 606 630 0
-439 -607 -631 0
439 607 -631 0
439 -607 631 0
-439 607 631 0
-440 -608 -632 0
440 608 -632 0
440 -608 632 0
-440 608 632 0
-441 -609 -633 0
441 609 -633 0
441 -609 633 0
-441 609 633 0
-442 -610 -634 0
442 610 -634 0
442 -610 634 0
-442 610 634 0
-443 -611 -635 0
443 611 -635 0
443 -611 635 0
-443 611 635 0
-444 -612 -636 0
444 612 -636 0
444 -612 636 0
-444 612 636 0
-445 -613 -637 0
445 613 -637 0
445 -613 637 0
-445 613 637 0
-446 -614 -638 0
446 614 -638 0
446 -614 638 0
-446 614 638 0
-447 -615 -639 0
447 615 -639 0
447 -615 639 0
-447 615 639 0
-448 -616 -640 0
448 616 -640 0
448 -616 640 0
-448 616 640 0
-449 -617 -641 0
449 617 -641 0
449 -617 641 0
-449 617 641 0
-450 -618 -642 0
450 618 -642 0
450 -618 642 0
-450 618 642 0
-451 -619 -643 0
451 619 -643 0
451 -619 643 0
-451 619 643 0
-452 -620 -644 0
452 620 -644 0
452 -620 644 0
-452 620 644 0
-453 -621 -645 0
453 621 -645 0
453 -621 645 0
-453 621 645 0
-454 -622 -646 0
454 622 -646 0
454 -622 646 0
-454 622 646 0
-455 -623 -647 0
455 623 -647 0
455 -623 647 0
-455 623 647 0
-456 -624 -648 0
456 624 -648 0
456 -624 648 0
-456 624 648 0
-649 625 0
-649 55 0
-625 -55 649 0
-650 626 0
-650 56 0
-626 -56 650 0
-651 627 0
-651 57 0
-627 -57 651 0
-652 628 0
-652 58 0
-628 -58 652 0
-653 629 0
-653 59 0
-629 -59 653 0
-654 630 0
-654 60 0
-630 -60 654 0
-655 631 0
-655 61 0
-631 -61 655 0
-656 632 0
-656 62 0
-632 -62 656 0
-657 633 0
-657 63 0
-633 -63 657 0
-658 634 0
-658 64 0
-634 -64 658 0
-659 635 0
-659 65 0
-635 -65 659 0
-660 636 0
-660 66 0
-636 -66 660 0
-661 637 0
-661 67 0
-637 -67 661 0
-662 638 0
-662 68 0
-638 -68 662 0
-663 639 0
-663 69 0
-639 -69 663 0
-664 640 0
-664 70 0
-640 -70 664 0
-665 641 0
-665 71 0
-641 -71 665 0
-666 642 0
-666 72 0
-642 -72 666 0
-667 643 0
-667 49 0
-643 -49 667 0
-668 644 0
-668 50 0
-644 -50 668 0
-669 645 0
-669 51 0
-645 -51 669 0
-670 646 0
-670 52 0
-646 -52 670 0
-671 647 0
-671 53 0
-647 -53 671 0
-672 648 0
-672 54 0
-648 -54 672 0
-649 -646 -673 0
649 646 -673 0
649 -646 673 0
-649 646 673 0
-650 -647 -674 0
650 647 -674 0
650 -647 674 0
-650 647 674 0
-651 -648 -675 0
651 648 -675 0
651 -648 675 0
-651 648 675 0
-652 -625 -676 0
652 625 -676 0
652 -625 676 0
-652 625 676 0
-653 -626 -677 0
653 626 -677 0
653 -626 677 0
-653 626 677 0
-654 -627 -678 0
654 627 -678 0
654 -627 678 0
-654 627 678 0
-655 -628 -679 0
655 628 -679 0
655 -628 679 0
-655 628 679 0
-656 -629 -680 0
656 629 -680 0
656 -629 680 0
-656 629 680 0
-657 -630 -681 0
657 630 -681 0
657 -630 681 0
-657 630 681 0
-658 -631 -682 0
658 631 -682 0
658 -631 682 0
-658 631 682 0
-659 -632 -683 0
659 632 -683 0
659 -632 683 0
-659 632 683 0
-660 -633 -684 0
660 633 -684 0
660 -633 684 0
-660 633 684 0
-661 -634 -685 0
661 634 -685 0
661 -634 685 0
-661 634 685 0
-662 -635 -686 0
662 635 -686 0
662 -635 686 0
-662 635 686 0
-663 -636 -687 0
663 636 -687 0
663 -636 687 0
-663 636 687 0
-664 -637 -688 0
664 637 -688 0
664 -637 688 0
-664 637 688 0
-665 -638 -689 0
665 638 -689 0
665 -638 689 0
-665 638 689 0
-666 -639 -690 0
666 639 -690 0
666 -639 690 0
-666 639 690 0
-667 -640 -691 0
667 640 -691 0
667 -640 691 0
-667 640 691 0
-668 -641 -692 0
668 641 -692 0
668 -641 692 0
-668 641 692 0
-669 -642 -693 0
669 642 -693 0
669 -642 693 0
-669 642 693 0
-670 -643 -694 0
670 643 -694 0
670 -643 694 0
-670 643 694 0
-671 -644 -695 0
671 644 -695 0
671 -644 695 0
-671 644 695 0
-672 -645 -696 0
672 645 -696 0
672 -645 696 0
-672 645 696 0
-673 -55 -697 0
673 55 -697 0
673 -55 697 0
-673 55 697 0
-674 -56 -698 0
674 56 -698 0
674 -56 698 0
-674 56 698 0
-675 -57 -699 0
675 57 -699 0
675 -57 699 0
-675 57 699 0
-676 -58 -700 0
676 58 -700 0
676 -58 700 0
-676 58 700 0
-677 -59 -701 0
677 59 -701 0
677 -59 701 0
-677 59 701 0
-678 -60 -702 0
678 60 -702 0
678 -60 702 0
-678 60 702 0
-679 -61 -703 0
679 61 -703 0
679 -61 703 0
-679 61 703 0
-680 -62 -704 0
680 62 -704 0
680 -62 704 0
-680 62 704 0
-681 -63 -705 0
681 63 -705 0
681 -63 705 0
-681 63 705 0
-682 -64 -706 0
682 64 -706 0
682 -64 706 0
-682 64 706 0
-683 -65 -707 0
683 65 -707 0
683 -65 707 0
-683 65 707 0
-684 -66 -708 0
684 66 -708 0
684 -66 708 0
-684 66 708 0
-685 -67 -709 0
685 67 -709 0
685 -67 709 0
-685 67 709 0
-686 -68 -710 0
686 68 -710 0
686 -68 710 0
-686 68 710 0
-687 -69 -711 0
687 69 -711 0
687 -69 711 0
-687 69 711 0
-688 -70 -712 0
688 70 -712 0
688 -70 712 0
-688 70 712 0
-689 -71 -713 0
689 71 -713 0
689 -71 713 0
-689 71 713 0
-690 -72 -714 0
690 72 -714 0
690 -72 714 0
-690 72 714 0
-691 -49 -715 0
691 49 -715 0
691 -49 715 0
-691 49 715 0
-692 -50 -716 0
692 50 -716 0
692 -50 716 0
-692 50 716 0
-693 -51 -717 0
693 51 -717 0
693 -51 717 0
-693 51 717 0
-694 -52 -718 0
694 52 -718 0
694 -52 718 0
-694 52 718 0
-695 -53 -719 0
695 53 -719 0
695 -53 719 0
-695 53 719 0
-696 -54 -720 0
696 54 -720 0
696 -54 720 0
-696 54 720 0
-529 -697 -721 0
529 697 -721 0
529 -697 721 0
-529 697 721 0
-530 -698 -722 0
530 698 -722 0
530 -698 722 0
-530 698 722 0
-531 -699 -723 0
531 699 -723 0
531 -699 723 0
-531 699 723 0
-532 -700 -724 0
532 700 -724 0
532 -700 724 0
-532 700 724 0
-533 -701 -725 0
533 701 -725 0
533 -701 725 0
-533 701 725 0
-534 -702 -726 0
534 702 -726 0
534 -702 726 0
-534 702 726 0
-535 -703 -727 0
535 703 -727 0
535 -703 727 0
-535 703 727 0
-536 -704 -728 0
536 704 -728 0
536 -704 728 0
-536 704 728 0
-537 -705 -729 0
537 705 -729 0
537 -705 729 0
-537 705 729 0
-538 -706 -730 0
538 706 -730 0
538 -706 730 0
-538 706 730 0
-539 -707 -731 0
539 707 -731 0
539 -707 731 0
-539 707 731 0
-540 -708 -732 0
540 708 -732 0
540 -708 732 0
-540 708 732 0
-541 -709 -733 0
541 709 -733 0
541 -709 733 0
-541 709 733 0
-542 -710 -734 0
542 710 -734 0
542 -710 734 0
-542 710 734 0
-543 -711 -735 0
543 711 -735 0
543 -711 735 0
-543 711 735 0
-544 -712 -736 0
544 712 -736 0
544 -712 736 0
-544 712 736 0
-545 -713 -737 0
545 713 -737 0
545 -713 737 0
-545 713 737 0
-546 -714 -738 0
546 714 -738 0
546 -714 738 0
-546 714 738 0
-547 -715 -739 0
547 715 -739 0
547 -715 739 0
-547 715 739 0
-548 -716 -740 0
548 716 -740 0
548 -716 740 0
-548 716 740 0
-549 -717 -741 0
549 717 -741 0
549 -717 741 0
-549 717 741 0
-550 -718 -742 0
550 718 -742 0
550 -718 742 0
-550 718 742 0
-551 -719 -743 0
551 719 -743 0
551 -719 743 0
-551 719 743 0
-552 -720 -744 0
552 720 -744 0
552 -720 744 0
-552 720 744 0
-745 721 0
-745 52 0
-721 -52 745 0
-746 722 0
-746 53 0
-722 -53 746 0
-747 723 0
-747 54 0
-723 -54 747 0
-748 724 0
-748 55 0
-724 -55 748 0
-749 725 0
-749 56 0
-725 -56 749 0
-750 726 0
-750 57 0
-726 -57 750 0
-751 727 0
-751 58 0
-727 -58 751 0
-752 728 0
-752 59 0
-728 -59 752 0
-753 729 0
-753 60 0
-729 -60 753 0
-754 730 0
-754 61 0
-730 -61 754 0
-755 731 0
-755 62 0
-731 -62 755 0
-756 732 0
-756 63 0
-732 -63 756 0
-757 733 0
-757 64 0
-733 -64 757 0
-758 734 0
-758 65 0
-734 -65 758 0
-759 735 0
-759 66 0
-735 -66 759 0
-760 736 0
-760 67 0
-736 -67 760 0
-761 737 0
-761 68 0
-737 -68 761 0
-762 738 0
-762 69 0
-738 -69 762 0
-763 739 0
-763 70 0
-739 -70 763 0
-764 740 0
-764 71 0
-740 -71 764 0
-765 741 0
-765 72 0
-741 -72 765 0
-766 742 0
-766 49 0
-742 -49 766 0
-767 743 0
-767 50 0
-743 -50 767 0
-768 744 0
-768 51 0
-744 -51 768 0
-745 -742 -769 0
745 742 -769 0
745 -742 769 0
-745 742 769 0
-746 -743 -770 0
746 743 -770 0
746 -743 770 0
-746 743 770 0
-747 -744 -771 0
747 744 -771 0
747 -744 771 0
-747 744 771 0
-748 -721 -772 0
748 721 -772 0
748 -721 772 0
-748 721 772 0
-749 -722 -773 0
749 722 -773 0
749 -722 773 0
-749 722 773 0
-750 -723 -774 0
750 723 -774 0
750 -723 774 0
-750 723 774 0
-751 -724 -775 0
751 724 -775 0
751 -724 775 0
-751 724 775 0
-752 -725 -776 0
752 725 -776 0
752 -725 776 0
-752 725 776 0
-753 -726 -777 0
753 726 -777 0
753 -726 777 0
-753 726 777 0
-754 -727 -778 0
754 727 -778 0
754 -727 778 0
-754 727 778 0
-755 -728 -779 0
755 728 -779 0
755 -728 779 0
-755 728 779 0
-756 -729 -780 0
756 729 -780 0
756 -729 780 0
-756 729 780 0
-757 -730 -781 0
757 730 -781 0
757 -730 781 0
-757 730 781 0
-758 -731 -782 0
758 731 -782 0
758 -731 782 0
-758 731 782 0
-759 -732 -783 0
759 732 -783 0
759 -732 783 0
-759 732 783 0
-760 -733 -784 0
760 733 -784 0
760 -733 784 0
-760 733 784 0
-761 -734 -785 0
761 734 -785 0
761 -734 785 0
-761 734 785 0
-762 -735 -786 0
762 735 -786 0
762 -735 786 0
-762 735 786 0
-763 -736 -787 0
763 736 -787 0
763 -736 787 0
-763 736 787 0
-764 -737 -788 0
764 737 -788 0
764 -737 788 0
-764 737 788 0
-765 -738 -789 0
765 738 -789 0
765 -738 789 0
-765 738 789 0
-766 -739 -790 0
766 739 -790 0
766 -739 790 0
-766 739 790 0
-767 -740 -791 0
767 740 -791 0
767 -740 791 0
-767 740 791 0
-768 -741 -792 0
768 741 -792 0
768 -741 792 0
-768 741 792 0
-769 -52 -793 0
769 52 -793 0
769 -52 793 0
-769 52 793 0
-770 -53 -794 0
770 53 -794 0
770 -53 794 0
-770 53 794 0
-771 -54 -795 0
771 54 -795 0
771 -54 795 0
-771 54 795 0
-772 -55 -796 0
772 55 -796 0
772 -55 796 0
-772 55 796 0
-773 -56 -797 0
773 56 -797 0
773 -56 797 0
-773 56 797 0
-774 -57 -798 0
774 57 -798 0
774 -57 798 0
-774 57 798 0
-775 -58 -799 0
775 58 -799 0
775 -58 799 0
-775 58 799 0
-776 -59 -800 0
776 59 -800 0
776 -59 800 0
-776 59 800 0
-777 -60 -801 0
777 60 -801 0
777 -60 801 0
-777 60 801 0
-778 -61 -802 0
778 61 -802 0
778 -61 802 0
-778 61 802 0
-779 -62 -803 0
779 62 -803 0
779 -62 803 0
-779 62 803 0
-780 -63 -804 0
780 63 -804 0
780 -63 804 0
-780 63 804 0
-781 -64 -805 0
781 64 -805 0
781 -64 805 0
-781 64 805 0
-782 -65 -806 0
782 65 -806 0
782 -65 806 0
-782 65 806 0
-783 -66 -807 0
783 66 -807 0
783 -66 807 0
-783 66 807 0
-784 -67 -808 0
784 67 -808 0
784 -67 808 0
-784 67 808 0
-785 -68 -809 0
785 68 -809 0
785 -68 809 0
-785 68 809 0
-786 -69 -810 0
786 69 -810 0
786 -69 810 0
-786 69 810 0
-787 -70 -811 0
787 70 -811 0
787 -70 811 0
-787 70 811 0
-788 -71 -812 0
788 71 -812 0
788 -71 812 0
-788 71 812 0
-789 -72 -813 0
789 72 -813 0
789 -72 813 0
-789 72 813 0
-790 -49 -814 0
790 49 -814 0
790 -49 814 0
-790 49 814 0
-791 -50 -815 0
791 50 -815 0
791 -50 815 0
-791 50 815 0
-792 -51 -816 0
792 51 -816 0
792 -51 816 0
-792 51 816 0
-625 -793 -817 0
625 793 -817 0
625 -793 817 0
-625 793 817 0
-626 -794 -818 0
626 794 -818 0
626 -794 818 0
-626 794 818 0
-627 -795 -819 0
627 795 -819 0
627 -795 819 0
-627 795 819 0
-628 -796 -820 0
628 796 -820 0
628 -796 820 0
-628 796 820 0
-629 -797 -821 0
629 797 -821 0
629 -797 821 0
-629 797 821 0
-630 -798 -822 0
630 798 -822 0
630 -798 822 0
-630 798 822 0
-631 -799 -823 0
631 799 -823 0
631 -799 823 0
-631 799 823 0
-632 -800 -824 0
632 800 -824 0
632 -800 824 0
-632 800 824 0
-633 -801 -825 0
633 801 -825 0
633 -801 825 0
-633 801 825 0
-634 -802 -826 0
634 802 -826 0
634 -802 826 0
-634 802 826 0
-635 -803 -827 0
635 803 -827 0
635 -803 827 0
-635 803 827 0
-636 -804 -828 0
636 804 -828 0
636 -804 828 0
-636 804 828 0
-637 -805 -829 0
637 805 -829 0
637 -805 829 0
-637 805 829 0
-638 -806 -830 0
638 806 -830 0
638 -806 830 0
-638 806 830 0
-639 -807 -831 0
639 807 -831 0
639 -807 831 0
-639 807 831 0
-640 -808 -832 0
640 808 -832 0
640 -808 832 0
-640 808 832 0
-641 -809 -833 0
641 809 -833 0
641 -809 833 0
-641 809 833 0
-642 -810 -834 0
642 810 -834 0
642 -810 834 0
-642 810 834 0
-643 -811 -835 0
643 811 -835 0
643 -811 835 0
-643 811 835 0
-644 -812 -836 0
644 812 -836 0
644 -812 836 0
-644 812 836 0
-645 -813 -837 0
645 813 -837 0
645 -813 837 0
-645 813 837 0
-646 -814 -838 0
646 814 -838 0
646 -814 838 0
-646 814 838 0
-647 -815 -839 0
647 815 -839 0
647 -815 839 0
-647 815 839 0
-648 -816 -840 0
648 816 -840 0
648 -816 840 0
-648 816 840 0
-1 0
2 0
-3 0
-4 0
-5 0
6 0
-7 0
8 0
-9 0
-10 0
11 0
-12 0
-13 0
14 0
-15 0
-16 0
17 0
18 0
19 0
-20 0
-21 0
22 0
-23 0
-24 0
-25 0
26 0
-27 0
-28 0
-29 0
30 0
-31 0
-32 0
33 0
34 0
-35 0
-36 0
-37 0
38 0
39 0
-40 0
41 0
42 0
43 0
-44 0
45 0
46 0
47 0
-48 0
817 0
-818 0
819 0
-820 0
-821 0
822 0
823 0
824 0
825 0
826 0
827 0
-828 0
-829 0
830 0
831 0
-832 0
-833 0
834 0
-835 0
836 0
837 0
838 0
-839 0
-840 0
-721 0
722 0
-723 0
-724 0
725 0
726 0
-727 0
728 0
-729 0
730 0
-731 0
732 0
733 0
-734 0
-735 0
736 0
-737 0
-738 0
739 0
-740 0
741 0
742 0
-743 0
744 0
