c Feistel cipher key recovery — XOR-heavy crypto benchmark
c block_size=16 key_size=8 rounds=4 seed=42
c plaintext=0x24a2 key=0x7d ciphertext=0x63c1
c vars=152 clauses=512
c Expected: SATISFIABLE (key recovery)
p cnf 152 512
-25 1 0
-25 17 0
-1 -17 25 0
-26 2 0
-26 18 0
-2 -18 26 0
-27 3 0
-27 19 0
-3 -19 27 0
-28 4 0
-28 20 0
-4 -20 28 0
-29 5 0
-29 21 0
-5 -21 29 0
-30 6 0
-30 22 0
-6 -22 30 0
-31 7 0
-31 23 0
-7 -23 31 0
-32 8 0
-32 24 0
-8 -24 32 0
-25 -6 -33 0
25 6 -33 0
25 -6 33 0
-25 6 33 0
-26 -7 -34 0
26 7 -34 0
26 -7 34 0
-26 7 34 0
-27 -8 -35 0
27 8 -35 0
27 -8 35 0
-27 8 35 0
-28 -1 -36 0
28 1 -36 0
28 -1 36 0
-28 1 36 0
-29 -2 -37 0
29 2 -37 0
29 -2 37 0
-29 2 37 0
-30 -3 -38 0
30 3 -38 0
30 -3 38 0
-30 3 38 0
-31 -4 -39 0
31 4 -39 0
31 -4 39 0
-31 4 39 0
-32 -5 -40 0
32 5 -40 0
32 -5 40 0
-32 5 40 0
-33 -17 -41 0
33 17 -41 0
33 -17 41 0
-33 17 41 0
-34 -18 -42 0
34 18 -42 0
34 -18 42 0
-34 18 42 0
-35 -19 -43 0
35 19 -43 0
35 -19 43 0
-35 19 43 0
-36 -20 -44 0
36 20 -44 0
36 -20 44 0
-36 20 44 0
-37 -21 -45 0
37 21 -45 0
37 -21 45 0
-37 21 45 0
-38 -22 -46 0
38 22 -46 0
38 -22 46 0
-38 22 46 0
-39 -23 -47 0
39 23 -47 0
39 -23 47 0
-39 23 47 0
-40 -24 -48 0
40 24 -48 0
40 -24 48 0
-40 24 48 0
-9 -41 -49 0
9 41 -49 0
9 -41 49 0
-9 41 49 0
-10 -42 -50 0
10 42 -50 0
10 -42 50 0
-10 42 50 0
-11 -43 -51 0
11 43 -51 0
11 -43 51 0
-11 43 51 0
-12 -44 -52 0
12 44 -52 0
12 -44 52 0
-12 44 52 0
-13 -45 -53 0
13 45 -53 0
13 -45 53 0
-13 45 53 0
-14 -46 -54 0
14 46 -54 0
14 -46 54 0
-14 46 54 0
-15 -47 -55 0
15 47 -55 0
15 -47 55 0
-15 47 55 0
-16 -48 -56 0
16 48 -56 0
16 -48 56 0
-16 48 56 0
-57 49 0
-57 22 0
-49 -22 57 0
-58 50 0
-58 23 0
-50 -23 58 0
-59 51 0
-59 24 0
-51 -24 59 0
-60 52 0
-60 17 0
-52 -17 60 0
-61 53 0
-61 18 0
-53 -18 61 0
-62 54 0
-62 19 0
-54 -19 62 0
-63 55 0
-63 20 0
-55 -20 63 0
-64 56 0
-64 21 0
-56 -21 64 0
-57 -54 -65 0
57 54 -65 0
57 -54 65 0
-57 54 65 0
-58 -55 -66 0
58 55 -66 0
58 -55 66 0
-58 55 66 0
-59 -56 -67 0
59 56 -67 0
59 -56 67 0
-59 56 67 0
-60 -49 -68 0
60 49 -68 0
60 -49 68 0
-60 49 68 0
-61 -50 -69 0
61 50 -69 0
61 -50 69 0
-61 50 69 0
-62 -51 -70 0
62 51 -70 0
62 -51 70 0
-62 51 70 0
-63 -52 -71 0
63 52 -71 0
63 -52 71 0
-63 52 71 0
-64 -53 -72 0
64 53 -72 0
64 -53 72 0
-64 53 72 0
-65 -22 -73 0
65 22 -73 0
65 -22 73 0
-65 22 73 0
-66 -23 -74 0
66 23 -74 0
66 -23 74 0
-66 23 74 0
-67 -24 -75 0
67 24 -75 0
67 -24 75 0
-67 24 75 0
-68 -17 -76 0
68 17 -76 0
68 -17 76 0
-68 17 76 0
-69 -18 -77 0
69 18 -77 0
69 -18 77 0
-69 18 77 0
-70 -19 -78 0
70 19 -78 0
70 -19 78 0
-70 19 78 0
-71 -20 -79 0
71 20 -79 0
71 -20 79 0
-71 20 79 0
-72 -21 -80 0
72 21 -80 0
72 -21 80 0
-72 21 80 0
-1 -73 -81 0
1 73 -81 0
1 -73 81 0
-1 73 81 0
-2 -74 -82 0
2 74 -82 0
2 -74 82 0
-2 74 82 0
-3 -75 -83 0
3 75 -83 0
3 -75 83 0
-3 75 83 0
-4 -76 -84 0
4 76 -84 0
4 -76 84 0
-4 76 84 0
-5 -77 -85 0
5 77 -85 0
5 -77 85 0
-5 77 85 0
-6 -78 -86 0
6 78 -86 0
6 -78 86 0
-6 78 86 0
-7 -79 -87 0
7 79 -87 0
7 -79 87 0
-7 79 87 0
-8 -80 -88 0
8 80 -88 0
8 -80 88 0
-8 80 88 0
-89 81 0
-89 19 0
-81 -19 89 0
-90 82 0
-90 20 0
-82 -20 90 0
-91 83 0
-91 21 0
-83 -21 91 0
-92 84 0
-92 22 0
-84 -22 92 0
-93 85 0
-93 23 0
-85 -23 93 0
-94 86 0
-94 24 0
-86 -24 94 0
-95 87 0
-95 17 0
-87 -17 95 0
-96 88 0
-96 18 0
-88 -18 96 0
-89 -86 -97 0
89 86 -97 0
89 -86 97 0
-89 86 97 0
-90 -87 -98 0
90 87 -98 0
90 -87 98 0
-90 87 98 0
-91 -88 -99 0
91 88 -99 0
91 -88 99 0
-91 88 99 0
-92 -81 -100 0
92 81 -100 0
92 -81 100 0
-92 81 100 0
-93 -82 -101 0
93 82 -101 0
93 -82 101 0
-93 82 101 0
-94 -83 -102 0
94 83 -102 0
94 -83 102 0
-94 83 102 0
-95 -84 -103 0
95 84 -103 0
95 -84 103 0
-95 84 103 0
-96 -85 -104 0
96 85 -104 0
96 -85 104 0
-96 85 104 0
-97 -19 -105 0
97 19 -105 0
97 -19 105 0
-97 19 105 0
-98 -20 -106 0
98 20 -106 0
98 -20 106 0
-98 20 106 0
-99 -21 -107 0
99 21 -107 0
99 -21 107 0
-99 21 107 0
-100 -22 -108 0
100 22 -108 0
100 -22 108 0
-100 22 108 0
-101 -23 -109 0
101 23 -109 0
101 -23 109 0
-101 23 109 0
-102 -24 -110 0
102 24 -110 0
102 -24 110 0
-102 24 110 0
-103 -17 -111 0
103 17 -111 0
103 -17 111 0
-103 17 111 0
-104 -18 -112 0
104 18 -112 0
104 -18 112 0
-104 18 112 0
-49 -105 -113 0
49 105 -113 0
49 -105 113 0
-49 105 113 0
-50 -106 -114 0
50 106 -114 0
50 -106 114 0
-50 106 114 0
-51 -107 -115 0
51 107 -115 0
51 -107 115 0
-51 107 115 0
-52 -108 -116 0
52 108 -116 0
52 -108 116 0
-52 108 116 0
-53 -109 -117 0
53 109 -117 0
53 -109 117 0
-53 109 117 0
-54 -110 -118 0
54 110 -118 0
54 -110 118 0
-54 110 118 0
-55 -111 -119 0
55 111 -119 0
55 -111 119 0
-55 111 119 0
-56 -112 -120 0
56 112 -120 0
56 -112 120 0
-56 112 120 0
-121 113 0
-121 24 0
-113 -24 121 0
-122 114 0
-122 17 0
-114 -17 122 0
-123 115 0
-123 18 0
-115 -18 123 0
-124 116 0
-124 19 0
-116 -19 124 0
-125 117 0
-125 20 0
-117 -20 125 0
-126 118 0
-126 21 0
-118 -21 126 0
-127 119 0
-127 22 0
-119 -22 127 0
-128 120 0
-128 23 0
-120 -23 128 0
-121 -118 -129 0
121 118 -129 0
121 -118 129 0
-121 118 129 0
-122 -119 -130 0
122 119 -130 0
122 -119 130 0
-122 119 130 0
-123 -120 -131 0
123 120 -131 0
123 -120 131 0
-123 120 131 0
-124 -113 -132 0
124 113 -132 0
124 -113 132 0
-124 113 132 0
-125 -114 -133 0
125 114 -133 0
125 -114 133 0
-125 114 133 0
-126 -115 -134 0
126 115 -134 0
126 -115 134 0
-126 115 134 0
-127 -116 -135 0
127 116 -135 0
127 -116 135 0
-127 116 135 0
-128 -117 -136 0
128 117 -136 0
128 -117 136 0
-128 117 136 0
-129 -24 -137 0
129 24 -137 0
129 -24 137 0
-129 24 137 0
-130 -17 -138 0
130 17 -138 0
130 -17 138 0
-130 17 138 0
-131 -18 -139 0
131 18 -139 0
131 -18 139 0
-131 18 139 0
-132 -19 -140 0
132 19 -140 0
132 -19 140 0
-132 19 140 0
-133 -20 -141 0
133 20 -141 0
133 -20 141 0
-133 20 141 0
-134 -21 -142 0
134 21 -142 0
134 -21 142 0
-134 21 142 0
-135 -22 -143 0
135 22 -143 0
135 -22 143 0
-135 22 143 0
-136 -23 -144 0
136 23 -144 0
136 -23 144 0
-136 23 144 0
-81 -137 -145 0
81 137 -145 0
81 -137 145 0
-81 137 145 0
-82 -138 -146 0
82 138 -146 0
82 -138 146 0
-82 138 146 0
-83 -139 -147 0
83 139 -147 0
83 -139 147 0
-83 139 147 0
-84 -140 -148 0
84 140 -148 0
84 -140 148 0
-84 140 148 0
-85 -141 -149 0
85 141 -149 0
85 -141 149 0
-85 141 149 0
-86 -142 -150 0
86 142 -150 0
86 -142 150 0
-86 142 150 0
-87 -143 -151 0
87 143 -151 0
87 -143 151 0
-87 143 151 0
-88 -144 -152 0
88 144 -152 0
88 -144 152 0
-88 144 152 0
-1 0
2 0
-3 0
-4 0
-5 0
6 0
-7 0
8 0
-9 0
-10 0
11 0
-12 0
-13 0
14 0
-15 0
-16 0
145 0
-146 0
-147 0
-148 0
-149 0
-150 0
151 0
152 0
113 0
114 0
-115 0
-116 0
-117 0
118 0
119 0
-120 0
