c Random 3-SAT instance at phase transition
c vars=292 clauses=1246 ratio=4.267 seed=4
p cnf 292 1246
-25 -197 -168 0
119 -195 -5 0
-128 157 -176 0
-16 -90 -42 0
-267 191 184 0
63 257 22 0
99 67 -284 0
-25 -27 177 0
168 291 -196 0
-175 -277 -92 0
292 -160 -232 0
237 263 -255 0
97 61 -78 0
-264 220 -266 0
-247 -159 48 0
36 59 -275 0
172 181 136 0
-4 -277 121 0
5 -12 -174 0
9 267 -154 0
68 163 -126 0
-292 29 -26 0
2 16 283 0
-48 -255 -8 0
166 48 262 0
-24 -133 276 0
5 58 77 0
-240 -178 -161 0
90 -215 -158 0
51 -132 25 0
99 60 -261 0
-43 230 -155 0
34 202 85 0
-104 -114 246 0
97 -147 -64 0
-2 -163 -229 0
-56 -164 -18 0
144 -40 -24 0
-132 -265 61 0
157 -60 141 0
-274 204 94 0
-33 206 83 0
-95 -221 118 0
-216 186 160 0
281 -174 66 0
117 277 -104 0
-40 -147 -206 0
26 -226 105 0
222 -24 236 0
70 -17 231 0
127 220 -12 0
-140 273 41 0
-179 7 257 0
-175 73 -74 0
118 232 240 0
-32 230 206 0
52 -135 11 0
108 54 -184 0
108 65 173 0
-85 137 -188 0
186 -21 53 0
22 225 -45 0
-257 247 -278 0
112 -185 183 0
146 -33 -53 0
-238 131 -188 0
-236 -164 -186 0
-241 -263 244 0
-64 -113 211 0
-168 -236 -275 0
160 49 128 0
52 -16 -177 0
-186 -230 -163 0
238 -187 77 0
-190 -61 -282 0
114 -70 -93 0
260 -178 206 0
-66 108 -7 0
-178 -204 -32 0
40 -211 -186 0
-233 171 174 0
-159 -222 228 0
-195 -221 -277 0
130 148 28 0
36 207 -251 0
197 -166 -270 0
-234 -66 101 0
276 16 85 0
-186 -256 228 0
138 -111 186 0
124 -90 -46 0
142 -133 275 0
273 148 -278 0
147 74 73 0
-36 137 129 0
27 158 -88 0
-63 -74 171 0
164 51 69 0
-47 89 -239 0
171 85 -243 0
-154 291 260 0
238 -150 160 0
218 -133 -267 0
149 -107 -61 0
-291 -288 73 0
122 168 138 0
74 161 -89 0
-16 53 -42 0
-255 18 -37 0
246 -78 -234 0
-207 -174 232 0
-23 -290 -282 0
254 140 150 0
-269 5 162 0
-206 -284 -227 0
-112 -292 -80 0
25 98 -270 0
284 -135 -20 0
292 -203 206 0
-225 -291 175 0
167 111 14 0
-37 254 -236 0
86 -186 3 0
-4 -171 -262 0
-292 175 170 0
50 -131 -267 0
234 -21 -48 0
288 94 -250 0
-19 177 89 0
73 90 182 0
-136 6 -99 0
201 -253 227 0
191 -34 -202 0
202 -147 248 0
91 -78 199 0
97 81 99 0
85 -126 -123 0
-80 -125 136 0
-176 49 184 0
-212 79 64 0
65 -115 -14 0
201 243 256 0
144 -123 -201 0
174 182 272 0
-39 199 -218 0
136 -131 -137 0
150 -141 -73 0
-263 2 143 0
120 -121 176 0
-71 -287 193 0
-134 -210 -127 0
246 238 -274 0
201 -3 14 0
116 -196 48 0
-193 129 254 0
-93 -130 78 0
267 -224 -171 0
-84 85 -35 0
156 22 250 0
-102 -205 182 0
-62 256 241 0
-62 -154 189 0
64 94 -86 0
281 -178 -234 0
-157 179 9 0
52 -243 -272 0
90 14 -179 0
-182 142 -88 0
22 203 -182 0
76 -257 170 0
-173 -272 -128 0
291 134 21 0
-72 26 146 0
196 -18 -37 0
-128 250 181 0
-96 50 -273 0
276 114 190 0
-213 -69 -170 0
-78 -22 39 0
-143 -197 243 0
-133 -189 112 0
172 282 188 0
-277 -290 -148 0
-171 -19 51 0
-56 116 45 0
-103 8 94 0
-174 244 -102 0
-200 -175 244 0
-269 4 172 0
-220 279 21 0
-52 -231 245 0
-88 -256 1 0
-263 260 264 0
-162 -58 136 0
234 -219 -203 0
-178 206 240 0
35 180 -259 0
38 205 -203 0
-27 -95 -22 0
-269 238 -261 0
243 17 -122 0
19 -24 -252 0
-276 -265 59 0
-14 192 -45 0
-228 -275 240 0
-77 291 -102 0
-272 149 203 0
196 -177 151 0
-45 173 -195 0
162 240 -291 0
226 -248 -215 0
-199 155 225 0
-271 201 -11 0
-248 218 -179 0
-235 -153 186 0
-65 -157 -119 0
211 -115 198 0
204 -219 138 0
-234 158 -276 0
-189 -103 1 0
191 -209 -143 0
-155 -256 -82 0
229 222 -266 0
147 157 -208 0
-202 -137 -238 0
-134 -138 82 0
-171 -112 78 0
-154 -69 180 0
-99 -215 -272 0
13 -17 5 0
-154 -183 5 0
152 -71 -121 0
-24 -93 -28 0
-90 114 49 0
-161 49 -118 0
136 195 254 0
172 -114 -85 0
17 266 -119 0
259 -70 110 0
-72 -65 -94 0
-74 127 215 0
268 238 107 0
-165 -56 -221 0
106 140 210 0
175 -18 240 0
140 198 -189 0
168 -286 -215 0
127 -283 -244 0
-164 -34 -87 0
62 -108 190 0
-164 100 80 0
268 -242 -112 0
106 -263 50 0
-262 67 -77 0
245 -24 256 0
232 -20 -12 0
30 169 -143 0
250 -85 -95 0
88 110 -95 0
-85 57 287 0
-6 -74 -16 0
82 -282 256 0
191 -179 210 0
244 167 -134 0
-205 217 -274 0
-18 25 -85 0
-269 -208 166 0
-289 -68 -106 0
-125 -205 22 0
125 -177 96 0
247 -213 276 0
-138 120 -147 0
-252 137 -1 0
-119 246 -120 0
-267 134 -36 0
142 194 225 0
167 -116 161 0
120 215 -227 0
-121 -205 257 0
224 242 4 0
57 64 141 0
273 28 -285 0
-72 -185 161 0
-158 91 -287 0
-59 132 163 0
111 -128 222 0
-129 289 -151 0
41 207 -233 0
62 -282 147 0
21 248 -113 0
-287 -135 -58 0
238 177 90 0
67 -46 -158 0
-157 273 85 0
90 59 -223 0
33 -3 -139 0
173 282 -147 0
-245 -139 194 0
-231 284 34 0
286 -78 227 0
-99 -207 -57 0
-147 183 17 0
-247 -29 -223 0
53 278 132 0
-120 -241 129 0
-4 -114 255 0
-150 25 286 0
-31 227 -112 0
-224 66 200 0
172 -203 264 0
200 166 -57 0
165 266 -250 0
57 -161 137 0
105 209 54 0
-153 -263 174 0
133 34 -118 0
253 260 -159 0
-257 81 36 0
65 -28 -186 0
242 73 -107 0
-240 220 141 0
-209 -211 -88 0
-240 -2 87 0
269 277 69 0
270 -201 -1 0
-128 -147 225 0
-237 16 147 0
-4 208 -178 0
272 -166 -54 0
278 -282 163 0
236 -167 -133 0
269 -54 -94 0
-291 -108 228 0
-20 -112 -155 0
21 264 -177 0
150 -288 108 0
72 -180 -10 0
-165 -48 -212 0
287 -245 -149 0
-196 210 -124 0
-57 -134 287 0
-174 -54 -194 0
-272 124 90 0
41 -211 -139 0
11 3 95 0
-61 223 20 0
14 -249 -111 0
35 105 -102 0
-109 -106 96 0
-88 257 161 0
85 192 3 0
75 -92 -12 0
-19 160 95 0
-271 -180 137 0
221 -177 253 0
-134 -94 40 0
75 117 79 0
-65 -282 -219 0
-61 -81 133 0
-85 288 61 0
-227 265 -113 0
-183 25 239 0
-206 -43 203 0
-216 246 230 0
-176 177 -56 0
44 149 287 0
-192 -174 76 0
-91 77 -85 0
272 100 234 0
61 204 -243 0
-261 -118 -152 0
245 34 -63 0
236 -130 34 0
243 199 158 0
20 120 -157 0
285 -281 -97 0
-110 -131 -211 0
-45 -51 53 0
157 74 106 0
-108 -1 16 0
280 -16 171 0
156 43 42 0
-42 -25 287 0
-130 -161 160 0
71 -260 -11 0
-57 188 -97 0
113 208 -124 0
-203 -69 132 0
-63 162 149 0
-217 119 -99 0
-189 -159 -10 0
-277 -53 23 0
-164 10 -137 0
87 155 280 0
15 -19 -186 0
-195 2 106 0
-100 61 164 0
108 -27 291 0
-253 145 -147 0
-83 45 -162 0
52 -194 -180 0
-181 -243 -91 0
-132 -154 27 0
150 273 188 0
45 -283 55 0
-284 90 1 0
79 270 255 0
117 132 -63 0
-247 -96 -240 0
-170 -30 -266 0
-229 59 11 0
48 250 207 0
76 116 -65 0
131 7 10 0
15 -244 286 0
86 37 -256 0
-288 -91 202 0
82 194 167 0
-257 -96 -280 0
-121 -129 -193 0
-75 167 265 0
184 219 -17 0
81 80 -221 0
-252 -281 9 0
-266 150 -80 0
261 -204 229 0
-203 10 -40 0
-15 -241 -254 0
-169 -65 -204 0
68 -47 174 0
60 29 288 0
75 287 274 0
-45 77 -99 0
-253 -222 182 0
-40 287 -249 0
25 -21 259 0
-12 56 67 0
-34 134 -125 0
66 92 -113 0
-49 -224 101 0
-205 185 -57 0
-66 138 -184 0
254 177 -71 0
-272 -63 -71 0
-83 -199 -124 0
183 -182 103 0
264 -54 17 0
-135 98 285 0
-15 194 76 0
223 216 94 0
85 269 -33 0
-125 58 -164 0
147 256 -7 0
-38 106 281 0
-234 -285 -211 0
251 177 100 0
-86 258 -40 0
190 122 236 0
-266 120 -6 0
192 -188 167 0
-266 63 102 0
273 -288 -136 0
169 -192 -240 0
29 -189 -260 0
-206 35 -238 0
213 -245 24 0
256 78 -162 0
17 -66 71 0
78 -81 -126 0
105 133 263 0
-275 108 140 0
-211 14 -136 0
-162 -244 -269 0
-50 -289 -54 0
-202 -201 174 0
63 -16 -150 0
-2 205 -282 0
-188 -110 -258 0
-218 243 28 0
41 -193 -35 0
97 130 273 0
266 256 98 0
217 281 148 0
-237 286 34 0
78 -46 262 0
72 -35 -222 0
253 -124 -202 0
128 256 39 0
34 187 89 0
59 191 -182 0
-74 154 -11 0
-215 212 -147 0
-230 254 -270 0
134 -184 -137 0
-132 -33 -192 0
-108 -229 -251 0
-31 124 -99 0
-48 -176 -279 0
-82 -81 221 0
-291 -47 97 0
155 265 45 0
-115 86 29 0
224 -177 32 0
81 -280 213 0
-165 -114 -8 0
-158 -58 156 0
-193 9 216 0
148 52 26 0
190 81 43 0
-188 252 -170 0
-214 -66 14 0
128 -87 -106 0
96 31 -288 0
-156 -277 62 0
-6 71 -131 0
284 -205 -184 0
166 226 -164 0
-25 167 -165 0
22 -84 -13 0
202 186 -277 0
-225 164 -257 0
-280 -237 270 0
-91 165 -198 0
244 -213 94 0
229 -187 17 0
-217 90 157 0
31 -145 -41 0
-271 -264 -111 0
-94 71 -122 0
-127 62 258 0
190 192 250 0
264 -8 82 0
-111 239 245 0
-180 281 164 0
33 186 271 0
38 103 206 0
-73 177 17 0
248 -101 9 0
286 -63 3 0
-52 81 -206 0
-195 231 88 0
-192 -113 -283 0
154 53 -101 0
185 213 -18 0
135 -140 183 0
106 -187 108 0
154 113 91 0
-236 210 -16 0
85 6 -220 0
150 -135 67 0
14 -275 -120 0
7 -146 161 0
-260 -8 40 0
-30 -20 140 0
-49 94 -176 0
-192 111 -25 0
257 75 104 0
-106 -52 -99 0
-241 73 262 0
-89 247 -26 0
193 -14 -3 0
250 -259 261 0
183 182 -33 0
-169 -19 56 0
274 271 -144 0
76 64 140 0
124 -285 272 0
148 -124 -126 0
215 -153 -61 0
-227 166 232 0
13 94 125 0
182 231 287 0
-109 -29 -274 0
154 -285 18 0
147 -54 -241 0
-246 -52 178 0
-241 -290 252 0
-51 -13 260 0
254 -35 -224 0
211 85 143 0
-255 -54 154 0
34 254 -151 0
81 159 84 0
-49 -103 -117 0
270 128 62 0
146 -165 -244 0
-66 -167 -54 0
97 232 175 0
34 59 14 0
-262 -45 -237 0
143 176 23 0
-117 72 -260 0
-162 284 -141 0
290 128 -170 0
76 65 -188 0
-61 -56 63 0
-273 7 -46 0
-62 -214 -60 0
247 266 -15 0
-278 162 33 0
-118 -204 -11 0
-193 107 -154 0
-160 -16 -52 0
-223 248 258 0
-196 48 245 0
63 177 -168 0
-46 -1 -176 0
-243 -214 112 0
-29 -79 209 0
288 -230 222 0
-119 -107 -266 0
100 -61 22 0
26 -54 56 0
69 -126 -253 0
179 46 -259 0
-258 -211 114 0
171 -284 246 0
190 -227 212 0
-154 215 156 0
256 13 -19 0
194 252 30 0
258 66 169 0
-89 188 -38 0
-204 66 -31 0
-272 249 155 0
-291 195 -57 0
-45 -11 149 0
-249 -64 255 0
220 -200 -237 0
-102 145 -19 0
100 -94 -91 0
-231 -41 250 0
31 203 -258 0
160 -38 -111 0
131 -112 -44 0
-86 157 117 0
203 77 69 0
266 -166 188 0
-185 21 231 0
249 62 4 0
248 215 40 0
-58 51 46 0
292 -68 81 0
90 -195 -244 0
52 194 290 0
-173 -53 -14 0
-159 93 -248 0
-6 93 19 0
282 -194 176 0
-68 270 -184 0
272 -131 -44 0
252 39 57 0
68 56 124 0
-73 141 -285 0
-38 -65 202 0
-291 140 51 0
-285 -32 149 0
-217 89 -269 0
231 -71 84 0
30 220 -111 0
-125 -19 171 0
260 229 228 0
-289 -287 9 0
224 116 197 0
283 264 60 0
-227 -184 -256 0
3 -251 -91 0
-186 -131 -25 0
157 171 10 0
120 -98 -175 0
-158 -1 131 0
270 -10 -280 0
-147 -74 107 0
-222 94 154 0
92 -91 96 0
268 -36 -74 0
50 144 -231 0
-43 -244 268 0
-257 81 275 0
-282 -56 -219 0
-14 150 42 0
-114 235 1 0
-99 -132 67 0
-71 15 -44 0
255 216 -27 0
-274 62 243 0
-279 14 155 0
-283 186 -204 0
-146 108 53 0
-94 -13 -12 0
288 -243 -62 0
212 -62 188 0
-43 -111 -7 0
187 -139 -289 0
-157 209 147 0
-8 -215 144 0
93 -284 -214 0
-166 -22 -102 0
48 106 -225 0
143 -178 60 0
-70 90 250 0
-257 84 55 0
-266 -120 -109 0
-106 -135 -219 0
-30 -166 -216 0
-238 54 142 0
212 -12 -231 0
74 269 18 0
-114 -230 -174 0
186 132 -247 0
-258 265 66 0
68 -53 -168 0
-61 -54 -199 0
-192 75 -73 0
-57 -97 -187 0
249 67 239 0
153 206 -102 0
-273 -134 -184 0
61 -35 239 0
-136 -147 30 0
216 -36 229 0
-286 235 183 0
-139 34 279 0
-243 -277 -110 0
-18 -172 -28 0
-71 -53 -209 0
208 -292 -147 0
109 -287 -217 0
5 221 -38 0
63 -210 162 0
14 -144 -5 0
196 270 245 0
269 43 -252 0
-40 162 193 0
168 -73 -7 0
-216 39 113 0
78 199 -187 0
190 13 -226 0
-246 81 -106 0
169 -163 -2 0
195 -119 184 0
-127 66 -248 0
-25 243 -71 0
277 162 213 0
69 195 -249 0
43 -174 84 0
-292 -94 -74 0
17 233 219 0
-258 21 -78 0
101 290 -128 0
176 102 21 0
251 -166 62 0
-100 -113 -2 0
257 -22 135 0
60 -65 16 0
-213 -131 -9 0
-218 -152 99 0
-206 -26 215 0
279 82 -14 0
191 -178 -15 0
-43 -276 -79 0
-142 58 -101 0
244 79 24 0
163 73 -10 0
-245 -129 217 0
-190 46 -7 0
182 157 181 0
49 17 66 0
-95 31 188 0
-72 3 -243 0
50 -195 225 0
-115 208 146 0
234 167 -238 0
-13 -161 97 0
-91 -113 -166 0
262 -46 -84 0
-129 -243 67 0
-78 -4 -179 0
-35 58 -203 0
180 63 -242 0
-121 87 101 0
-15 292 -174 0
-195 227 107 0
292 139 28 0
-277 151 -19 0
-171 -142 3 0
236 269 190 0
71 -84 205 0
-269 -59 -149 0
-28 -273 -180 0
-115 -55 248 0
-186 166 23 0
-243 161 233 0
231 -288 -146 0
63 -128 8 0
74 80 -177 0
134 -199 -135 0
-236 104 -149 0
-203 -208 -77 0
-172 -96 97 0
139 261 -172 0
248 113 -9 0
255 -63 16 0
-54 -9 98 0
-221 130 -146 0
71 168 -15 0
-207 -211 172 0
-250 -101 -140 0
150 -209 -96 0
-170 67 -282 0
134 75 -232 0
71 -100 292 0
173 252 238 0
178 165 -129 0
-97 -223 -196 0
-270 223 -273 0
-108 -48 204 0
120 -81 111 0
289 279 -74 0
290 -142 -145 0
-8 68 -195 0
-38 169 -54 0
-10 -217 -86 0
-66 56 114 0
-163 37 81 0
-77 98 39 0
-214 -149 198 0
284 -10 53 0
285 -154 -20 0
261 58 -252 0
-259 226 -89 0
-244 225 -68 0
-219 -284 94 0
-267 -178 30 0
-204 -81 9 0
-18 -121 -204 0
101 -22 57 0
164 42 83 0
227 -26 -87 0
-102 -209 267 0
285 23 38 0
-277 75 -208 0
12 -246 -43 0
-187 4 106 0
-215 -154 -73 0
-191 228 -198 0
246 282 -223 0
149 -243 192 0
87 171 -206 0
-153 230 -141 0
118 -187 286 0
273 -172 -264 0
29 -23 -183 0
-229 -131 214 0
-18 49 -58 0
-49 255 -230 0
93 49 -73 0
125 96 141 0
-160 112 220 0
236 218 128 0
195 3 159 0
-41 -75 72 0
-123 -105 -47 0
134 60 -53 0
138 53 -5 0
-154 -25 43 0
200 147 122 0
136 -158 114 0
-89 195 -46 0
-23 184 258 0
142 -286 201 0
212 -166 -210 0
-58 22 130 0
-76 207 82 0
-97 96 -9 0
46 41 285 0
-172 263 117 0
167 267 33 0
-178 160 -111 0
-5 -157 93 0
-2 239 -202 0
151 149 32 0
55 -31 -234 0
-199 -132 96 0
-154 210 117 0
-108 102 -244 0
-250 218 245 0
22 127 -76 0
-103 58 146 0
-66 111 -63 0
289 -148 285 0
-46 99 30 0
-130 16 239 0
-2 283 -155 0
-168 57 -2 0
-39 -239 -41 0
201 291 39 0
43 -114 -266 0
286 -8 -176 0
-170 -140 -31 0
-141 -249 -175 0
-168 -196 -152 0
100 -104 -239 0
-33 -79 -48 0
-83 -219 -95 0
97 136 210 0
-43 263 96 0
-219 -289 -194 0
292 -247 24 0
-246 -230 -292 0
98 65 239 0
75 -128 -72 0
26 53 -2 0
-7 149 64 0
-175 -247 12 0
-224 20 -236 0
-107 -40 11 0
-201 205 -12 0
-6 183 -81 0
56 148 166 0
139 -208 -268 0
266 -238 -265 0
265 -74 -118 0
-100 125 -107 0
216 96 -266 0
-36 24 -63 0
-274 -113 -72 0
-261 -120 -150 0
212 -160 83 0
267 240 -21 0
113 287 -138 0
-256 -233 -135 0
-206 -107 -52 0
252 92 172 0
195 50 250 0
78 170 -280 0
206 270 66 0
258 189 -272 0
230 -254 150 0
-206 136 60 0
168 233 248 0
-266 -220 -193 0
-21 -98 -202 0
-188 -94 201 0
26 238 -134 0
-126 -1 193 0
24 260 100 0
282 -202 261 0
-34 97 -173 0
-263 133 214 0
200 15 -289 0
-104 225 113 0
219 2 290 0
22 235 29 0
-205 -16 -240 0
-259 -141 101 0
-190 -156 -177 0
-289 201 57 0
16 118 61 0
159 278 -53 0
104 -44 181 0
-187 -107 -156 0
14 -129 -128 0
-73 56 -234 0
-189 216 248 0
-99 -73 -274 0
-213 -62 -38 0
-158 232 271 0
-32 -42 -101 0
21 -94 -143 0
-139 -248 -54 0
93 -247 133 0
108 -233 154 0
155 104 275 0
38 -54 1 0
-99 -217 -278 0
-81 -5 -230 0
-285 -282 -98 0
249 218 102 0
-110 177 -238 0
235 -92 127 0
-235 270 -88 0
117 -273 -78 0
59 -281 211 0
-206 -5 113 0
221 -75 -262 0
-116 -192 162 0
122 -27 -257 0
-264 263 63 0
46 291 229 0
109 -214 31 0
-292 -146 282 0
-29 257 -30 0
-226 234 82 0
34 -4 127 0
186 60 104 0
-10 -47 -20 0
145 -64 -179 0
-229 39 -8 0
-34 -137 47 0
284 -283 219 0
156 -14 -137 0
-77 70 35 0
-212 238 -132 0
-255 52 254 0
-183 -192 114 0
-208 -165 -159 0
-172 -233 22 0
-54 103 246 0
-244 -119 -101 0
-7 -284 -211 0
-292 156 -117 0
258 -255 -204 0
253 -247 78 0
-136 8 -20 0
287 -132 140 0
49 -167 223 0
-149 158 -129 0
145 109 116 0
-162 116 -100 0
-257 145 -188 0
216 43 101 0
-282 230 137 0
-254 34 111 0
-196 153 -173 0
279 158 -5 0
113 240 180 0
-33 -229 -110 0
-220 118 212 0
246 -50 114 0
-44 10 23 0
-80 -56 208 0
267 207 141 0
220 -54 189 0
-10 -146 -226 0
73 -154 267 0
-83 126 -99 0
-224 257 -78 0
249 245 -97 0
-30 278 -281 0
-35 -195 211 0
-223 110 197 0
36 182 -74 0
-154 -265 34 0
170 -216 102 0
-135 85 -235 0
121 -158 84 0
140 234 -259 0
5 292 87 0
111 -143 135 0
-174 -114 38 0
77 -229 234 0
234 -105 -227 0
-175 203 -120 0
225 -280 282 0
-205 -114 162 0
-222 163 6 0
-87 -149 57 0
286 -224 -17 0
-7 214 -80 0
69 5 -292 0
-99 -260 -237 0
-232 16 257 0
228 277 74 0
-207 -76 95 0
290 85 80 0
-245 115 108 0
-113 -27 -202 0
-254 -172 -235 0
102 193 11 0
-181 -279 5 0
-216 -142 71 0
-44 -94 269 0
65 280 -122 0
189 -103 -234 0
204 110 99 0
-62 -215 175 0
-270 -75 268 0
221 8 28 0
2 197 19 0
-190 54 -63 0
241 67 -47 0
-108 -39 267 0
-206 -10 233 0
-26 -190 -117 0
148 157 -95 0
228 190 103 0
-135 140 246 0
-7 105 77 0
-128 216 -245 0
183 -174 -211 0
23 -255 -166 0
-261 -21 -154 0
-207 160 -262 0
225 -74 -93 0
35 282 146 0
-193 -206 289 0
261 195 11 0
196 179 27 0
-151 -103 -269 0
-12 196 -156 0
23 185 245 0
163 -220 80 0
-191 -227 55 0
258 -162 261 0
277 -80 -98 0
-184 224 272 0
-147 -204 140 0
-239 -212 -265 0
-189 -8 -213 0
71 -13 -236 0
-90 228 236 0
116 -201 -160 0
73 -172 192 0
207 38 -221 0
-229 222 -144 0
265 103 -188 0
-247 -207 86 0
237 -185 145 0
-228 260 -99 0
141 249 -216 0
114 81 -82 0
-20 119 88 0
179 140 -58 0
-57 229 232 0
286 -239 122 0
277 71 -275 0
288 -56 -98 0
129 -126 135 0
153 -134 117 0
-99 -250 -155 0
219 -221 72 0
194 24 -153 0
136 267 2 0
-103 281 -93 0
279 210 107 0
255 -287 188 0
-77 202 -48 0
14 -56 -108 0
94 22 244 0
-194 172 -158 0
96 -191 215 0
62 136 -11 0
-213 -280 -283 0
-234 185 -238 0
74 126 241 0
229 -254 246 0
250 -197 23 0
259 190 -138 0
135 -41 108 0
-243 -249 -260 0
157 -104 218 0
-142 188 133 0
212 155 277 0
-42 161 128 0
-114 224 99 0
107 -58 -59 0
-148 232 -2 0
10 138 -73 0
182 -11 274 0
-86 -245 233 0
-170 -129 72 0
266 82 -175 0
55 200 85 0
164 65 18 0
-249 285 217 0
171 -93 44 0
202 -214 -185 0
6 158 -226 0
2 276 3 0
-43 -161 117 0
-31 233 -73 0
60 166 -287 0
196 176 12 0
267 72 -113 0
-175 280 181 0
-9 185 -123 0
-184 -51 150 0
-271 111 -121 0
-219 -144 55 0
104 56 144 0
-251 90 220 0
-217 200 -55 0
35 105 -201 0
98 168 -167 0
178 289 -16 0
228 -139 -237 0
-88 76 17 0
234 -116 -216 0
-275 -253 -10 0
-242 -216 112 0
37 288 -117 0
285 20 6 0
265 80 110 0
21 258 -228 0
179 28 -127 0
-50 228 -115 0
-180 39 4 0
-141 -198 -256 0
-142 -190 198 0
103 129 30 0
-82 -227 -38 0
242 63 225 0
173 138 -161 0
-268 91 58 0
-38 -238 -267 0
-83 214 104 0
131 154 -127 0
-126 -12 -228 0
50 124 274 0
44 91 190 0
-288 79 4 0
43 70 -255 0
178 -132 -142 0
276 -260 -259 0
-93 271 288 0
56 116 11 0
200 -267 -224 0
264 287 -45 0
-189 66 -261 0
154 16 -157 0
176 -253 204 0
18 -233 -214 0
-53 249 189 0
46 2 -165 0
218 246 -189 0
-243 23 -63 0
124 -131 32 0
151 -219 -2 0
189 -218 276 0
208 -15 174 0
228 254 -250 0
-254 -70 125 0
-145 -233 -137 0
-182 39 -136 0
-114 -289 -95 0
63 -52 -67 0
86 56 -125 0
-9 13 172 0
-55 177 148 0
19 81 189 0
204 -175 121 0
122 -119 -282 0
-142 116 -286 0
154 -76 -261 0
170 89 59 0
