c Random 3-SAT instance at phase transition
c vars=355 clauses=1515 ratio=4.267 seed=3
p cnf 355 1515
-349 -126 51 0
-144 143 -127 0
-189 186 -174 0
-56 -192 -218 0
345 115 -223 0
-89 -2 -293 0
-7 -333 156 0
-127 253 130 0
206 -81 -260 0
-128 -192 244 0
-241 -337 330 0
-77 92 95 0
-272 36 -129 0
-71 -332 -110 0
-203 -344 346 0
-138 -147 -166 0
262 349 299 0
-209 311 -56 0
140 326 -153 0
-242 -260 159 0
241 -22 196 0
-231 -207 -195 0
-177 -342 -328 0
227 38 306 0
144 180 75 0
269 260 -263 0
350 -35 -163 0
250 -197 99 0
305 -117 -86 0
-171 311 304 0
-105 -78 131 0
-108 -348 -271 0
126 -223 236 0
-289 5 99 0
250 57 -26 0
-104 -164 329 0
-260 208 -19 0
307 -194 61 0
-244 -160 -99 0
86 228 -66 0
-324 -219 -252 0
171 -71 271 0
18 -20 296 0
-335 -296 -281 0
77 -2 -71 0
-251 -140 -16 0
-32 -34 224 0
324 78 -37 0
-347 -19 -262 0
-306 -115 328 0
-1 244 36 0
-205 -45 -203 0
277 159 -191 0
-51 20 172 0
215 -14 -248 0
285 -203 63 0
103 79 -89 0
353 -2 335 0
265 33 138 0
-77 317 -331 0
-196 73 169 0
-274 146 147 0
351 279 -46 0
-25 -290 -27 0
-6 -77 43 0
-139 -215 355 0
-25 311 61 0
-348 -45 -297 0
145 241 276 0
85 167 24 0
192 -293 -246 0
-303 -102 86 0
-335 89 16 0
317 56 217 0
243 181 116 0
48 343 71 0
-163 -322 -247 0
46 115 3 0
-47 175 21 0
139 275 -83 0
257 -48 113 0
-3 254 183 0
175 300 -210 0
-166 93 108 0
-160 179 206 0
-323 -300 229 0
-152 -322 299 0
-75 124 -77 0
107 328 70 0
-161 24 267 0
352 -3 -8 0
346 -224 326 0
-161 -291 -153 0
19 23 -293 0
51 34 349 0
-274 241 -281 0
-33 98 18 0
44 -145 1 0
167 -135 -113 0
-330 -355 65 0
292 75 130 0
-181 -102 100 0
127 -342 15 0
-207 80 306 0
248 -348 -327 0
339 -44 -154 0
5 -317 -14 0
-126 267 75 0
-343 263 -7 0
2 313 304 0
-165 -275 274 0
-303 -31 -161 0
241 -171 -191 0
-253 -76 -33 0
121 -59 -183 0
-267 289 -225 0
121 -329 29 0
-220 18 -237 0
-268 62 -43 0
88 -272 -212 0
-7 255 206 0
-292 -111 28 0
-137 313 36 0
353 216 -269 0
-296 347 135 0
-178 93 109 0
-314 178 -265 0
193 -164 110 0
-31 136 -166 0
-233 -34 -47 0
-219 -201 197 0
-278 86 28 0
118 -220 -219 0
-232 242 -62 0
121 -127 -285 0
260 -59 -19 0
-332 -257 67 0
-5 77 273 0
-201 309 170 0
2 -24 -326 0
-334 74 -93 0
-62 -285 -28 0
-50 -129 -352 0
-146 68 219 0
-331 178 -318 0
167 336 350 0
30 162 263 0
-337 -51 -128 0
-177 -185 -97 0
41 -167 -161 0
-237 349 338 0
196 227 -316 0
128 -93 125 0
314 91 97 0
98 27 300 0
-110 -222 -346 0
-264 -182 -337 0
234 264 328 0
-331 -158 -185 0
-68 -166 -245 0
-251 1 350 0
-83 -326 -233 0
64 -170 -31 0
-272 -81 178 0
-254 -236 302 0
258 97 175 0
83 -146 -283 0
261 346 -59 0
308 -62 -258 0
-296 355 -231 0
-32 301 -345 0
227 95 -9 0
-270 -143 -120 0
-258 -231 42 0
-316 -126 -29 0
-210 147 51 0
-235 -341 -107 0
-1 -309 283 0
268 -216 81 0
-135 333 294 0
-151 326 -333 0
324 234 -147 0
-283 314 340 0
13 -270 44 0
166 52 -101 0
333 329 -50 0
273 -119 -277 0
-250 304 -121 0
24 354 271 0
145 -193 -159 0
-87 -27 -135 0
-95 269 -3 0
-73 217 -60 0
231 183 -308 0
287 249 -151 0
34 -341 -303 0
10 -293 -328 0
-300 -242 143 0
-267 -118 -119 0
2 45 -336 0
322 -207 77 0
322 23 189 0
-257 307 94 0
340 -234 -138 0
182 218 -73 0
-258 -91 -46 0
-47 -107 -292 0
-19 323 187 0
41 -175 333 0
-105 235 301 0
293 346 97 0
328 8 -125 0
-100 262 91 0
-298 -269 23 0
-260 -262 165 0
-85 -145 -241 0
212 196 -127 0
-182 -353 -124 0
161 -246 113 0
-174 -71 -30 0
-95 -62 226 0
129 -216 -263 0
-269 307 -214 0
-1 300 208 0
-148 -353 145 0
337 -226 -253 0
-70 76 105 0
-32 94 -39 0
-13 -141 -331 0
-325 -236 -164 0
155 139 -5 0
-197 -196 -81 0
132 -314 -88 0
-216 -226 227 0
154 -216 129 0
120 -104 103 0
-71 98 -337 0
241 27 -211 0
68 -86 -157 0
-4 326 159 0
-128 -200 144 0
-78 -312 83 0
-93 157 -8 0
-144 -317 -158 0
-6 91 49 0
273 -150 -248 0
298 15 199 0
-154 -23 182 0
177 106 -151 0
-218 243 264 0
80 342 42 0
-117 342 -118 0
309 261 185 0
-223 -18 354 0
-279 -204 -155 0
228 15 -288 0
-329 -116 51 0
216 -68 -29 0
-93 157 -281 0
-334 204 108 0
237 71 101 0
-351 9 -66 0
-124 -196 -233 0
337 -149 267 0
-50 235 320 0
-343 226 -10 0
-2 -190 106 0
264 -162 308 0
-252 -348 127 0
48 248 -349 0
109 166 229 0
266 -32 -178 0
-312 -69 215 0
-354 45 201 0
114 247 -133 0
320 -31 -192 0
163 328 -162 0
-8 -91 -316 0
-322 162 -296 0
178 -169 -21 0
-343 -121 301 0
45 -199 17 0
258 39 110 0
-337 -249 -240 0
120 -282 121 0
27 -78 282 0
139 -262 -210 0
-339 300 244 0
53 -217 194 0
341 340 -193 0
185 81 -232 0
178 -347 339 0
-33 322 86 0
-185 -207 117 0
-61 -8 156 0
188 -100 -11 0
-172 -198 104 0
96 348 170 0
-33 -196 108 0
-322 311 -350 0
-321 64 192 0
132 234 -242 0
-4 -141 -246 0
202 350 -95 0
129 -262 -201 0
-217 231 -230 0
278 326 38 0
-194 -1 -285 0
346 100 151 0
280 -98 -330 0
180 291 -228 0
144 333 -346 0
-175 -151 -248 0
280 -88 63 0
-208 165 201 0
-315 276 -181 0
238 92 -114 0
-230 251 -182 0
117 -88 -189 0
-106 151 -207 0
149 156 -59 0
18 -21 -331 0
253 154 189 0
-180 -113 176 0
-217 47 -46 0
177 105 5 0
-264 -54 -55 0
-288 334 -329 0
-280 193 -337 0
-65 -131 -62 0
138 -150 -323 0
334 113 14 0
-58 -109 245 0
-195 94 -50 0
-78 -355 -150 0
-52 352 105 0
-208 251 -139 0
-54 342 328 0
244 -327 57 0
-277 101 -271 0
-198 172 -96 0
-145 -89 143 0
-243 -297 259 0
278 -39 153 0
336 -177 185 0
-61 146 -266 0
-25 -257 -33 0
-274 66 -268 0
74 -115 194 0
-305 42 -281 0
18 -337 6 0
125 -179 10 0
214 -23 125 0
339 51 -147 0
223 -327 -27 0
87 -177 -204 0
-206 116 -51 0
101 66 130 0
-3 -1 64 0
73 -240 308 0
66 2 -3 0
-45 16 202 0
-254 -62 -165 0
-237 -130 -70 0
104 254 -153 0
125 289 220 0
132 -239 162 0
97 -329 -312 0
-100 219 275 0
-302 325 261 0
42 -178 -276 0
-174 92 -128 0
50 94 -346 0
-335 315 -15 0
-174 -80 -246 0
129 182 -58 0
110 35 80 0
330 -225 248 0
133 287 140 0
-354 167 118 0
290 -5 164 0
30 296 187 0
-133 -175 -299 0
258 143 -123 0
222 115 108 0
262 354 102 0
-239 174 88 0
222 -185 274 0
90 -36 -335 0
75 -239 -249 0
-339 177 -11 0
80 123 202 0
-297 281 38 0
-254 187 319 0
-337 -208 -197 0
-289 39 144 0
-196 -258 -150 0
-53 172 -198 0
-147 -187 -36 0
107 -273 -37 0
-321 215 -143 0
292 132 153 0
180 257 -144 0
280 -288 -198 0
-227 -79 67 0
264 92 -132 0
-314 -65 325 0
-22 148 -321 0
259 269 30 0
-151 83 -18 0
138 70 114 0
349 -94 -310 0
82 -349 109 0
89 -198 11 0
-18 343 347 0
133 280 -306 0
-101 345 244 0
-291 -67 -234 0
-245 125 124 0
-22 226 196 0
-306 -177 326 0
301 104 26 0
-131 169 347 0
290 143 -249 0
1 21 -228 0
242 256 -181 0
-114 -244 -62 0
265 -42 -354 0
-266 175 35 0
-290 -40 -115 0
5 47 -235 0
267 -212 199 0
48 -4 206 0
348 123 109 0
125 -342 -317 0
36 -240 -100 0
-139 177 -92 0
-332 25 31 0
241 95 120 0
-133 291 56 0
-21 259 -44 0
-311 -22 -219 0
253 299 -3 0
-306 280 154 0
-229 -94 278 0
318 -244 39 0
-225 -208 -325 0
-237 -44 -325 0
-210 -204 -312 0
-149 -53 8 0
146 -281 25 0
-69 196 13 0
-186 240 -141 0
26 235 -321 0
-147 -231 86 0
-16 123 224 0
-105 -249 341 0
335 -321 344 0
-11 278 -351 0
-74 305 -296 0
-109 -195 -110 0
-40 182 -92 0
135 348 -223 0
92 -286 340 0
-5 -192 -133 0
-184 227 -185 0
82 12 -30 0
-27 296 291 0
32 -155 223 0
-109 -242 259 0
-37 200 270 0
-153 -45 -29 0
302 239 347 0
296 265 314 0
38 -244 -145 0
-320 -21 137 0
248 249 -347 0
-132 58 -256 0
-39 -350 -243 0
170 353 62 0
-169 144 -335 0
79 163 -28 0
52 160 -281 0
179 -212 -117 0
-191 268 -92 0
187 -182 239 0
-303 -226 -310 0
153 -155 40 0
27 -11 287 0
-251 -351 65 0
-42 231 319 0
-35 -339 12 0
-320 235 -71 0
125 224 -38 0
193 46 -324 0
-277 -115 289 0
-98 -244 -83 0
-324 225 -248 0
-142 98 316 0
-213 -144 -335 0
207 113 222 0
-331 269 70 0
-348 351 338 0
243 -224 -348 0
174 -19 189 0
-324 -344 -19 0
-114 -331 171 0
-6 -347 -186 0
-152 195 -126 0
-293 -184 162 0
-10 -242 -193 0
-79 145 -229 0
-23 -46 288 0
-295 66 -277 0
276 347 90 0
-218 -148 217 0
310 -29 114 0
-29 40 55 0
-186 212 -153 0
-280 -268 -216 0
-269 -346 -111 0
-244 29 336 0
-231 -352 -305 0
209 -4 -28 0
-195 264 121 0
175 -269 266 0
67 -203 213 0
-233 219 18 0
6 348 -200 0
72 75 285 0
236 179 91 0
-241 297 195 0
300 150 129 0
56 -215 331 0
228 -328 245 0
-133 330 70 0
-117 -326 277 0
-132 122 129 0
97 -324 -244 0
-355 -76 -98 0
90 135 -270 0
-86 246 -299 0
163 -62 -247 0
228 -265 -330 0
107 -315 -251 0
353 -69 -257 0
337 2 256 0
241 139 -219 0
-160 292 -287 0
-28 75 -80 0
-84 -307 303 0
-111 238 -32 0
92 327 -311 0
187 -15 328 0
-196 -157 53 0
-320 267 -30 0
-25 -249 320 0
-237 296 -207 0
-171 -141 -113 0
-167 340 -58 0
-306 104 -228 0
166 -251 335 0
-102 -27 346 0
157 -349 -315 0
203 331 268 0
112 225 -168 0
228 188 21 0
297 30 -150 0
168 -19 -113 0
69 -39 -344 0
175 93 46 0
166 -100 322 0
307 22 316 0
-279 250 -127 0
-68 -199 253 0
-166 -271 -315 0
-200 172 327 0
-130 281 -327 0
247 -268 -305 0
-288 -271 313 0
40 -278 259 0
-109 -48 -56 0
204 296 -10 0
349 45 335 0
-56 136 61 0
151 -145 -72 0
-299 215 151 0
23 207 -82 0
-243 -121 285 0
305 -280 185 0
-238 -101 -212 0
296 18 332 0
-199 -244 322 0
102 251 -242 0
-10 154 210 0
-128 -240 20 0
-49 272 290 0
-25 -218 287 0
34 -14 -35 0
259 56 -155 0
-73 -179 205 0
-237 -27 -157 0
-86 -71 155 0
-56 -98 221 0
301 220 107 0
211 201 123 0
196 286 -267 0
39 -314 -130 0
-86 224 38 0
-136 -149 286 0
-255 326 -61 0
-12 324 -329 0
-231 210 355 0
-8 -280 -238 0
201 -184 347 0
-233 171 151 0
326 338 203 0
122 10 -129 0
218 30 -165 0
284 267 -201 0
-191 274 263 0
-341 345 -120 0
-54 95 98 0
64 131 -45 0
339 -120 192 0
-27 -261 112 0
-142 71 -85 0
-141 -326 59 0
-12 235 -231 0
-179 315 217 0
293 -35 -9 0
222 -7 -112 0
99 -216 -165 0
-86 -214 -339 0
47 -225 348 0
96 218 -70 0
104 -302 338 0
-309 -169 248 0
263 319 104 0
93 116 268 0
-29 -300 46 0
-69 -104 121 0
-6 306 224 0
64 80 -344 0
123 -253 -174 0
-176 91 245 0
330 -355 -92 0
-182 -26 -82 0
-247 -107 -297 0
311 -49 -78 0
-3 248 -84 0
-173 -296 -1 0
-213 123 -121 0
-223 39 222 0
232 323 341 0
84 103 174 0
293 300 183 0
-46 28 19 0
-26 16 197 0
-129 172 -291 0
333 227 17 0
-102 45 20 0
7 -346 76 0
-233 -247 154 0
-73 171 39 0
93 -223 -55 0
-313 -204 -173 0
-38 -99 -300 0
200 322 -162 0
-137 26 129 0
-136 36 312 0
289 302 -24 0
282 157 260 0
-98 -196 106 0
-231 -64 18 0
-315 -217 -284 0
-66 211 -86 0
-119 281 -39 0
-83 -121 -84 0
230 93 142 0
-149 -185 -228 0
-187 -165 -135 0
-75 331 -258 0
-132 -236 -100 0
-261 -34 126 0
291 -172 -118 0
163 332 -272 0
59 -276 79 0
-115 -187 189 0
93 -89 3 0
-22 -354 295 0
-53 136 -223 0
-183 -185 204 0
-26 347 -254 0
77 198 160 0
216 -152 -329 0
279 200 -133 0
126 95 -272 0
42 6 66 0
172 -249 105 0
3 -152 -221 0
204 43 339 0
-13 198 -156 0
-115 -44 -276 0
-193 -185 15 0
338 -48 203 0
253 -333 350 0
-53 150 58 0
287 263 -236 0
322 36 -210 0
-350 -319 -244 0
112 -30 -235 0
122 -90 -229 0
337 324 181 0
-290 301 299 0
137 15 -295 0
-58 -230 18 0
295 -337 -277 0
-302 -107 -279 0
222 -211 -317 0
148 -215 -248 0
181 78 -210 0
-264 146 -212 0
24 -179 101 0
281 158 203 0
-247 316 312 0
314 -133 294 0
-248 -56 81 0
21 -351 81 0
191 233 -256 0
254 -240 -83 0
-270 -40 -201 0
350 12 161 0
-155 -63 -67 0
201 81 309 0
22 195 310 0
-220 -53 -312 0
-322 219 -298 0
50 -199 -249 0
-27 339 -306 0
-276 156 235 0
353 298 120 0
-319 93 281 0
29 -175 -212 0
-13 -294 172 0
340 269 21 0
253 254 -245 0
31 70 -291 0
-318 41 -198 0
294 -54 -43 0
-261 204 -161 0
251 147 -295 0
-43 31 -341 0
119 53 -220 0
-126 317 -340 0
105 -184 97 0
-215 341 207 0
-61 -154 85 0
37 -54 77 0
-214 172 -91 0
295 -312 -204 0
-87 -68 -212 0
154 29 -179 0
83 159 -70 0
163 229 -223 0
314 140 70 0
-155 -225 -46 0
7 -291 266 0
24 223 285 0
258 88 123 0
-172 -54 -242 0
-251 -274 54 0
-273 42 285 0
253 43 -196 0
-347 -223 -253 0
189 -101 339 0
-183 -4 -349 0
80 -286 -56 0
-153 66 -105 0
16 127 -145 0
184 172 -312 0
256 48 -266 0
-77 -217 -151 0
292 29 -341 0
-91 -50 284 0
-196 -178 309 0
-346 -188 -190 0
207 -201 301 0
-279 234 351 0
125 100 157 0
-170 325 -143 0
267 351 -87 0
135 204 -3 0
-344 -256 -1 0
-54 323 -32 0
337 138 8 0
291 26 27 0
-187 84 212 0
-253 -100 -59 0
-168 -30 -100 0
280 313 -11 0
-27 232 41 0
236 -278 -304 0
208 217 -139 0
234 -72 -87 0
-246 226 87 0
324 79 -279 0
-69 272 -15 0
250 299 -301 0
-204 125 126 0
-151 203 25 0
154 326 -343 0
90 -297 286 0
229 65 38 0
-182 205 -71 0
177 -14 127 0
-154 -67 -147 0
-163 -112 138 0
-241 -125 -69 0
-110 -281 141 0
-279 -153 -56 0
275 -324 -87 0
-61 117 260 0
-143 -92 -201 0
336 -54 -127 0
68 310 25 0
-7 156 -348 0
-163 -287 -351 0
-153 178 -80 0
11 349 254 0
216 -260 -138 0
-25 52 -342 0
-67 -172 -192 0
-193 298 138 0
-209 -95 -83 0
266 -154 -337 0
-288 141 -286 0
-120 -46 -103 0
262 -316 286 0
-185 -82 -213 0
-282 -348 -88 0
9 -92 296 0
-115 -69 342 0
-207 299 -89 0
-250 207 -49 0
-132 68 272 0
-68 312 44 0
-236 -45 -27 0
292 237 221 0
51 306 75 0
115 265 156 0
-294 -323 -305 0
288 -126 239 0
-48 160 -226 0
-166 149 -213 0
-257 -24 -199 0
236 226 118 0
254 -249 22 0
-236 -212 -178 0
-277 -342 -303 0
304 213 58 0
136 98 -59 0
124 -327 24 0
-59 163 -141 0
-103 190 -330 0
71 148 -253 0
-111 -136 -187 0
255 32 -93 0
-131 -19 -205 0
228 137 197 0
37 -140 94 0
40 179 282 0
340 111 -207 0
-268 -346 275 0
-260 -15 225 0
157 51 215 0
124 3 131 0
-143 -346 -265 0
305 -178 -42 0
-238 -118 349 0
152 -93 228 0
-295 -296 86 0
10 -214 -237 0
-78 53 -179 0
324 -65 286 0
-128 178 -84 0
80 345 -177 0
-107 -347 -14 0
-202 107 35 0
54 -51 -292 0
-58 76 -278 0
-36 -66 -125 0
161 100 320 0
-344 -28 -30 0
-311 55 -193 0
-104 157 -347 0
142 -51 257 0
-76 -83 -136 0
-241 46 212 0
-235 110 180 0
43 62 -311 0
-332 -270 -318 0
107 -344 43 0
43 139 243 0
-36 -240 -144 0
321 -285 -157 0
-85 -78 202 0
46 273 213 0
-159 147 251 0
56 314 -8 0
-296 -166 -13 0
316 -9 81 0
323 -330 265 0
-45 -85 -204 0
340 -75 335 0
-266 -338 142 0
-102 311 -256 0
-56 -224 304 0
298 -97 63 0
321 61 -140 0
-99 71 175 0
206 -228 163 0
209 291 -91 0
-329 -11 14 0
140 -123 -237 0
-203 -333 -322 0
156 191 -344 0
331 -118 -104 0
164 94 168 0
64 27 33 0
-178 -269 -145 0
-261 268 -210 0
298 303 -258 0
346 -138 255 0
-66 -299 229 0
80 -7 -19 0
68 118 -345 0
-109 272 -248 0
354 331 -84 0
-256 197 -100 0
75 259 207 0
-183 -276 119 0
-348 121 175 0
312 50 133 0
-330 61 -94 0
192 -342 -139 0
-120 333 131 0
129 142 354 0
99 -11 272 0
-52 168 16 0
-66 264 324 0
267 -331 -187 0
-234 180 170 0
251 249 -40 0
-188 -244 -180 0
-99 -146 328 0
-272 107 225 0
-57 262 230 0
-41 -36 32 0
-156 -207 -76 0
92 120 296 0
178 -185 -222 0
-292 10 -48 0
-194 -271 -30 0
-176 -220 -134 0
-186 -127 -92 0
-220 321 -304 0
-180 -128 90 0
-119 -337 -315 0
-312 114 -184 0
-107 41 209 0
-300 52 -342 0
-256 -228 303 0
-186 -250 183 0
167 -349 152 0
161 88 324 0
36 -114 348 0
228 -109 -314 0
195 -241 -99 0
283 -248 269 0
23 -60 -346 0
-198 337 -185 0
282 42 107 0
19 158 -36 0
56 310 301 0
8 -121 56 0
-91 -180 -311 0
-19 -61 354 0
145 -84 -349 0
-163 -82 116 0
249 322 -339 0
65 205 41 0
55 142 103 0
342 60 306 0
254 -337 -67 0
-90 329 -256 0
-283 -92 236 0
-74 85 -111 0
-260 39 -66 0
287 -331 333 0
-170 -122 -55 0
-83 -156 322 0
205 -124 64 0
283 28 5 0
256 -155 -2 0
213 -294 215 0
-9 -244 281 0
-215 23 -319 0
2 -117 -293 0
-288 -254 197 0
-191 -5 -63 0
26 -3 -187 0
-355 -22 23 0
-91 -48 -245 0
-217 -190 -332 0
-67 109 -275 0
125 -237 -327 0
-333 31 -327 0
180 290 -169 0
224 21 139 0
258 -318 121 0
42 47 243 0
-114 -82 -112 0
-311 152 285 0
-248 -25 176 0
315 22 319 0
-238 -14 -143 0
-258 -321 -141 0
347 -343 -242 0
189 98 -191 0
-119 -139 -152 0
2 25 203 0
-28 104 159 0
-133 114 -173 0
-167 187 300 0
255 120 352 0
184 258 316 0
352 322 56 0
-73 -318 311 0
-314 135 243 0
-43 -10 191 0
149 225 139 0
-51 -338 249 0
-133 -169 -19 0
-120 285 -209 0
-223 -190 -229 0
-267 -165 194 0
153 -84 -4 0
313 102 -304 0
-140 39 205 0
-251 -131 140 0
335 160 -285 0
268 -149 277 0
258 -229 -164 0
146 120 88 0
305 -74 140 0
113 -204 -300 0
179 -152 29 0
-302 -169 100 0
-315 -215 194 0
-339 -24 180 0
-101 -352 103 0
259 -40 341 0
152 160 -147 0
-317 -294 -271 0
-92 -347 -142 0
220 -121 12 0
163 -244 -6 0
238 -82 -291 0
136 332 -236 0
-331 72 -299 0
4 -140 318 0
284 -16 -287 0
117 -259 -344 0
336 -115 291 0
182 -82 343 0
-267 85 -104 0
141 71 60 0
69 44 -141 0
-219 115 237 0
-62 54 121 0
-110 278 -221 0
76 -298 163 0
-19 -44 -346 0
322 -46 -79 0
-34 217 197 0
40 -207 -315 0
339 -222 279 0
220 -216 269 0
-59 -185 -165 0
-55 274 -332 0
141 167 -204 0
118 128 -209 0
-45 -32 -37 0
265 176 33 0
233 1 166 0
-74 -80 170 0
-252 125 215 0
176 248 -120 0
306 196 198 0
-178 -234 -207 0
-86 202 324 0
-169 -260 99 0
-324 -268 -160 0
165 -152 -259 0
-29 -153 137 0
151 21 -311 0
-231 212 -313 0
-300 275 -21 0
76 -67 -337 0
98 81 67 0
137 -79 138 0
221 48 199 0
-138 -183 -178 0
-80 -331 -164 0
292 122 267 0
1 -7 316 0
-6 -134 16 0
260 -167 63 0
12 -269 -61 0
89 87 218 0
122 55 -107 0
-112 58 -348 0
-238 70 259 0
113 -120 304 0
330 51 137 0
-68 56 98 0
349 182 -217 0
345 -49 169 0
-349 -282 96 0
-268 -97 -351 0
-172 -324 71 0
110 -295 -84 0
260 -46 -274 0
260 264 -17 0
-30 237 341 0
129 178 -8 0
-21 280 -64 0
110 332 -19 0
-333 112 56 0
120 -222 -253 0
259 -223 301 0
-198 -79 152 0
-171 265 -169 0
-329 -332 -354 0
207 -147 -204 0
-55 -51 92 0
246 -229 107 0
320 -169 -215 0
-74 -290 -30 0
-219 -104 196 0
266 -147 -291 0
-1 334 -199 0
-26 67 -279 0
160 146 222 0
-47 -100 23 0
-32 -327 25 0
-22 285 -143 0
-278 -229 -306 0
-92 240 346 0
201 -335 -247 0
-242 -11 94 0
55 -185 -327 0
124 -195 4 0
67 -54 188 0
-31 -298 11 0
-316 -317 243 0
195 281 -283 0
-321 183 36 0
-349 -234 39 0
-226 174 -350 0
48 -87 -354 0
18 -90 183 0
-335 163 -203 0
64 -270 -61 0
-234 58 -208 0
-60 -267 245 0
131 85 -117 0
-290 302 191 0
-97 83 7 0
-35 338 -305 0
-225 -141 46 0
-297 136 -33 0
222 313 278 0
-133 -93 -141 0
178 114 122 0
-212 157 104 0
-250 -282 -271 0
103 74 -211 0
-76 230 181 0
-131 135 99 0
27 209 -205 0
314 261 290 0
9 -175 141 0
152 70 350 0
2 -242 240 0
-280 -327 222 0
106 -258 289 0
-29 31 -304 0
186 -9 111 0
-309 95 -323 0
302 -74 -249 0
-237 -301 241 0
-291 150 266 0
258 101 -202 0
-319 -208 38 0
-322 -198 -197 0
-157 -42 -108 0
280 83 -283 0
-328 81 344 0
181 9 287 0
-88 295 -212 0
245 -60 -11 0
335 -249 103 0
-205 -283 91 0
-279 326 -48 0
-255 -275 -12 0
-112 189 -210 0
-313 -349 295 0
-79 184 -120 0
-168 88 156 0
131 213 -18 0
126 292 70 0
-346 347 -344 0
-32 -31 223 0
-278 -132 -51 0
-183 -61 -24 0
140 80 -109 0
-12 -277 117 0
184 163 176 0
82 196 193 0
220 257 195 0
-321 -73 -320 0
-225 1 -26 0
319 -62 327 0
232 -63 148 0
-81 -215 -89 0
-282 -125 320 0
169 6 188 0
-341 99 211 0
-197 277 -190 0
-122 -336 -268 0
152 194 345 0
123 141 80 0
-218 291 211 0
20 -65 -92 0
-283 -31 121 0
133 -301 313 0
-256 -325 -35 0
-77 352 292 0
176 -180 -278 0
-102 39 -156 0
-347 307 -343 0
98 -100 129 0
242 236 114 0
-159 -39 245 0
333 191 -192 0
223 -210 -97 0
347 259 292 0
-354 101 -233 0
-314 35 320 0
-27 160 -355 0
-269 -185 352 0
-13 -185 12 0
29 -236 104 0
152 -346 -297 0
262 310 -136 0
-273 303 -347 0
264 190 -194 0
-57 168 -222 0
115 58 -203 0
60 250 15 0
-196 -86 32 0
130 -213 48 0
220 289 -201 0
227 100 296 0
292 122 -70 0
18 142 -234 0
338 56 136 0
234 12 161 0
-130 -111 342 0
-165 145 -71 0
-146 162 227 0
194 -208 316 0
91 -325 -203 0
212 -99 -334 0
-96 -188 195 0
43 294 -35 0
187 28 -349 0
133 -265 279 0
-187 52 -139 0
7 157 217 0
271 36 -212 0
-6 -197 -104 0
-155 170 -238 0
-211 219 -66 0
-199 143 -245 0
12 -279 -55 0
249 36 -63 0
-188 323 82 0
-153 -33 -65 0
60 -39 -82 0
54 328 -133 0
-185 121 343 0
198 -245 -123 0
-155 -281 236 0
-208 -281 -338 0
89 -120 353 0
127 190 -138 0
18 -7 -329 0
-320 58 2 0
-337 299 148 0
321 -96 -144 0
-101 225 318 0
-55 179 124 0
-193 -67 -171 0
-53 -294 156 0
-166 -172 47 0
63 259 -98 0
-83 275 -334 0
-70 -78 334 0
315 339 -300 0
-110 -226 -194 0
42 -10 -81 0
-28 -253 182 0
262 -55 142 0
-283 282 21 0
-77 -287 193 0
41 188 332 0
-351 182 145 0
-200 41 -118 0
45 274 312 0
195 -146 337 0
121 -114 -249 0
-3 243 -84 0
-11 310 13 0
-122 -185 -165 0
-291 91 -246 0
-266 -337 -283 0
133 273 187 0
-120 199 -66 0
-147 205 -273 0
342 -130 13 0
43 -77 -317 0
258 325 162 0
219 -263 -239 0
40 -333 196 0
304 335 297 0
-169 49 338 0
226 97 133 0
48 -205 254 0
-264 266 326 0
-66 7 38 0
-338 -22 229 0
200 105 -112 0
-309 316 88 0
299 89 -96 0
-236 -61 75 0
70 245 81 0
-220 -270 114 0
-149 1 -166 0
105 -24 -107 0
191 -321 -16 0
-163 137 19 0
187 -33 -231 0
304 -7 330 0
-186 224 -284 0
-205 183 -317 0
89 -21 -169 0
351 291 142 0
90 241 34 0
-187 -250 -142 0
-224 145 -340 0
206 198 194 0
-228 61 223 0
-127 296 -147 0
12 -112 -180 0
-149 -201 73 0
329 -192 -176 0
326 162 -309 0
-173 122 -325 0
206 -227 -50 0
279 -332 212 0
261 -351 -171 0
152 -267 -316 0
-9 -22 -278 0
-303 35 -237 0
-180 48 57 0
-183 339 -154 0
-106 -40 6 0
-120 -265 262 0
252 321 -142 0
247 -17 -297 0
15 288 -233 0
-82 302 -207 0
83 -228 -133 0
215 -108 -94 0
-188 -256 -150 0
259 343 138 0
257 4 -23 0
166 -117 238 0
132 -169 160 0
-344 296 246 0
201 274 -11 0
-75 252 70 0
254 -210 220 0
19 336 -339 0
54 -260 91 0
74 -185 126 0
220 212 137 0
-227 -257 -148 0
183 -269 162 0
-315 -196 -167 0
-241 -125 3 0
-144 109 322 0
-142 -208 59 0
-120 193 -154 0
-214 98 149 0
222 -115 -77 0
169 -213 -279 0
-51 6 140 0
-48 90 355 0
-173 171 -255 0
143 301 190 0
257 248 -191 0
279 301 -322 0
-304 -43 282 0
-206 121 270 0
322 -163 232 0
-328 -311 -33 0
56 45 -153 0
-112 -236 -270 0
-218 259 -253 0
-261 -307 -131 0
-51 -114 315 0
-211 18 188 0
240 -72 216 0
98 -317 99 0
-291 -253 111 0
-269 -122 -313 0
-115 295 -92 0
-143 -283 121 0
-81 317 147 0
230 295 216 0
175 -328 -109 0
36 -82 -333 0
3 159 -340 0
-81 119 151 0
109 -78 216 0
-157 44 -153 0
206 173 -294 0
197 -158 -199 0
-235 340 39 0
57 -45 196 0
250 -126 -14 0
-39 245 -99 0
7 -214 98 0
168 -105 328 0
305 188 308 0
-158 101 121 0
167 153 184 0
-223 313 -121 0
-145 -318 -298 0
301 -40 -5 0
-48 -85 42 0
-327 147 281 0
214 234 -113 0
-165 -227 -2 0
51 179 -1 0
-232 108 189 0
-73 19 290 0
-13 -122 -198 0
-322 -203 216 0
66 98 -277 0
321 -201 69 0
-226 -204 310 0
213 162 -244 0
29 -167 -107 0
290 192 287 0
-305 -10 -300 0
-265 -351 -173 0
-239 -230 -79 0
-32 -10 -60 0
40 336 293 0
-291 -127 296 0
-40 282 -201 0
15 210 145 0
41 -99 -268 0
-263 -248 -256 0
236 268 -89 0
-96 -37 -234 0
343 242 271 0
-281 128 -229 0
-35 -312 74 0
-234 114 235 0
-339 -331 -303 0
42 54 -166 0
-328 -218 66 0
223 79 274 0
15 -51 231 0
-174 109 121 0
-329 285 -178 0
188 -42 3 0
-197 -216 287 0
12 308 77 0
146 -314 20 0
246 -203 313 0
-274 134 -303 0
343 211 -318 0
-272 186 313 0
-35 213 9 0
168 -181 -200 0
-219 -43 -304 0
-118 272 267 0
285 -251 -213 0
