c Random 3-SAT instance at phase transition
c vars=260 clauses=1109 ratio=4.267 seed=3
p cnf 260 1109
169 -38 106 0
-251 -244 216 0
253 -151 71 0
201 -203 179 0
235 209 -210 0
63 219 -27 0
-37 233 -235 0
-239 -243 89 0
182 -126 57 0
-41 -95 196 0
-243 14 220 0
208 135 -73 0
-144 -180 156 0
-60 228 -41 0
-103 239 -183 0
224 -26 -235 0
-144 191 -35 0
-143 -20 -133 0
178 -28 149 0
-170 -55 -215 0
193 -159 72 0
229 -152 -120 0
-73 235 197 0
-234 -17 232 0
-18 -77 96 0
-79 255 -99 0
173 -141 -152 0
183 4 -189 0
183 42 22 0
188 16 231 0
74 -27 -251 0
-45 -5 98 0
71 -246 -78 0
72 -122 -136 0
103 223 -65 0
153 -15 217 0
-169 -217 -206 0
57 -52 145 0
-184 164 -150 0
34 44 57 0
-186 -192 -144 0
36 31 -63 0
156 43 33 0
253 -142 117 0
15 126 238 0
-199 159 209 0
8 55 76 0
231 -106 246 0
194 215 95 0
-97 -159 70 0
124 233 -11 0
20 -208 257 0
-11 -96 47 0
58 46 -237 0
-188 127 -112 0
168 228 -177 0
-89 255 -33 0
177 202 111 0
123 229 18 0
141 -215 -101 0
-172 65 12 0
74 41 -163 0
32 133 85 0
84 52 -243 0
181 239 34 0
189 -98 172 0
102 202 -61 0
83 -7 -170 0
-129 54 -133 0
154 -175 68 0
-82 131 151 0
237 -220 -145 0
-80 -236 219 0
68 -219 55 0
-72 202 -48 0
-108 -132 -155 0
27 -51 -6 0
-254 164 221 0
-35 36 47 0
137 -64 8 0
-154 -210 -201 0
72 -54 179 0
-1 52 6 0
99 -83 -184 0
-241 -161 109 0
150 133 -75 0
106 -43 251 0
-49 -152 96 0
-258 182 -255 0
113 66 196 0
117 223 -41 0
-177 193 76 0
164 -214 2 0
-126 -121 201 0
-23 118 -38 0
-177 -183 196 0
-16 239 -180 0
248 -32 -190 0
-153 212 -165 0
-89 241 -247 0
-21 -13 68 0
-32 -57 -235 0
-56 -195 -218 0
86 2 97 0
21 54 -6 0
-153 125 -180 0
-72 178 -250 0
-3 29 -174 0
-175 -182 -70 0
94 5 218 0
65 -23 100 0
103 -25 -191 0
169 207 -237 0
-63 -21 41 0
-246 -161 -27 0
43 -77 160 0
-6 81 -158 0
-69 198 -193 0
186 10 4 0
45 100 227 0
-96 30 -2 0
-35 154 128 0
214 32 -241 0
-118 -257 -37 0
141 -107 50 0
-173 178 -233 0
-40 191 95 0
-66 -22 -119 0
-94 -118 -186 0
-28 171 30 0
118 174 213 0
257 114 -94 0
191 22 67 0
-76 72 20 0
90 163 -124 0
-130 -247 -144 0
51 52 100 0
-136 202 -135 0
62 -184 -1 0
-132 -61 -8 0
-202 23 -193 0
-131 36 152 0
-90 -225 228 0
-244 128 -159 0
107 129 -224 0
149 -10 -208 0
-103 16 155 0
-34 -227 24 0
-178 206 -119 0
-116 167 -198 0
238 151 198 0
233 -154 108 0
-250 -126 -163 0
7 -249 197 0
-230 -64 244 0
-98 -111 239 0
-108 -256 -157 0
10 -135 125 0
147 20 25 0
255 179 244 0
-181 -120 -200 0
200 -214 260 0
-188 -189 -18 0
58 48 -117 0
103 94 17 0
90 118 72 0
2 -65 -169 0
-132 -44 -257 0
210 183 -111 0
25 -250 -222 0
-93 235 -43 0
-105 254 -170 0
34 -132 -60 0
-200 238 17 0
83 -224 150 0
54 -172 234 0
-51 -169 3 0
-34 42 -248 0
-200 55 -14 0
82 -2 190 0
-253 -109 77 0
73 -215 120 0
222 111 6 0
-206 -192 153 0
-106 -17 -170 0
-101 192 -237 0
-100 -11 -253 0
166 182 -93 0
-134 -259 -91 0
11 57 -180 0
-40 28 -237 0
-63 166 191 0
-221 -193 37 0
-106 157 -29 0
1 220 -166 0
259 -254 -215 0
-120 26 170 0
69 -24 49 0
236 -10 -37 0
-191 -244 10 0
173 145 -144 0
-132 98 13 0
-241 184 102 0
19 -129 95 0
88 -73 76 0
114 -52 72 0
251 49 -112 0
41 204 10 0
-22 -190 -240 0
-130 -94 147 0
-114 -229 61 0
33 -115 132 0
116 57 -244 0
-200 -182 127 0
146 -42 113 0
152 212 107 0
-216 160 178 0
31 -201 -81 0
-250 -13 83 0
-91 103 -160 0
131 173 -156 0
219 60 -50 0
-140 -68 115 0
146 -137 115 0
46 5 80 0
218 -91 -163 0
190 223 -222 0
49 16 -183 0
-68 -128 168 0
8 -143 76 0
245 -119 226 0
-185 -255 93 0
-179 80 237 0
-71 195 187 0
-158 226 126 0
6 62 10 0
-209 7 -13 0
237 120 -119 0
6 -67 242 0
58 63 124 0
-89 38 -190 0
-139 -6 -252 0
-29 -230 -195 0
88 39 110 0
-93 217 -97 0
-154 -232 -10 0
179 -54 13 0
43 -103 -241 0
-190 111 -151 0
-210 245 -25 0
-78 255 -89 0
-220 27 -56 0
232 -5 -45 0
11 -138 -8 0
35 3 34 0
-255 125 157 0
-144 -78 -3 0
84 -145 -236 0
118 -155 -47 0
-63 -224 252 0
-83 -180 -104 0
148 257 -70 0
95 212 192 0
-254 169 13 0
-146 142 -204 0
87 -124 -1 0
172 254 -208 0
-205 236 72 0
210 132 -167 0
171 -240 244 0
87 105 -252 0
-209 181 238 0
-88 -169 -54 0
-68 -20 231 0
-105 68 97 0
199 -68 122 0
-224 111 -152 0
230 115 5 0
248 -37 218 0
232 -113 -220 0
-83 -129 100 0
-159 241 32 0
-220 -130 77 0
105 -192 -40 0
174 -54 -211 0
-34 -259 205 0
-58 165 141 0
24 -140 -237 0
245 83 77 0
-240 -176 255 0
161 180 -254 0
141 -68 38 0
-250 117 -245 0
-240 14 22 0
201 222 125 0
145 -200 126 0
-66 105 -250 0
-153 -246 92 0
228 158 -169 0
160 -87 -45 0
-40 -241 -180 0
-223 -220 201 0
256 -131 -243 0
-224 31 -206 0
5 144 48 0
112 5 13 0
92 156 -237 0
-108 -65 49 0
201 66 86 0
-17 129 185 0
232 51 137 0
192 193 -1 0
8 -176 226 0
194 -49 118 0
-67 103 127 0
253 -203 -30 0
-138 179 -24 0
-169 81 -78 0
161 20 127 0
175 119 -209 0
244 80 -160 0
-202 -99 -56 0
131 -31 -202 0
-39 163 -37 0
-253 230 -231 0
-225 -128 -247 0
256 95 134 0
-96 -178 111 0
35 -21 82 0
199 245 112 0
10 -16 167 0
63 -213 -4 0
217 252 141 0
-163 -165 155 0
127 218 -181 0
-133 39 -50 0
67 -175 -128 0
-136 150 -20 0
-35 -92 55 0
156 -187 130 0
-125 -59 90 0
206 68 -175 0
137 234 -228 0
-137 -249 -212 0
234 -2 -144 0
167 -39 -235 0
222 -200 -27 0
105 -170 214 0
31 -177 -113 0
-57 -211 189 0
92 -99 -77 0
128 -97 -169 0
46 -246 -52 0
25 198 190 0
111 -246 61 0
38 107 254 0
185 -216 -227 0
245 60 256 0
251 8 177 0
205 134 182 0
13 -35 -137 0
173 -74 -49 0
-92 -91 73 0
-16 169 144 0
-30 -130 239 0
221 200 29 0
1 70 -124 0
126 105 97 0
-110 -10 252 0
-69 138 -84 0
-44 217 -214 0
-128 -26 244 0
-160 190 -206 0
112 -196 146 0
35 -3 151 0
-90 -80 69 0
-162 223 144 0
85 47 -107 0
214 142 179 0
58 70 88 0
7 -213 35 0
64 -190 225 0
29 161 -110 0
219 -14 -17 0
-113 -207 197 0
-204 -208 -7 0
-232 201 -40 0
-203 246 114 0
-260 -253 -156 0
150 229 137 0
256 164 -246 0
-19 92 -20 0
10 -49 -53 0
-162 148 -158 0
37 -73 -108 0
-18 -12 192 0
183 -250 215 0
-141 -204 133 0
144 -217 -241 0
81 -188 30 0
-242 -249 -99 0
56 -68 210 0
106 -4 -141 0
96 -135 -128 0
206 230 60 0
-152 -20 217 0
-17 24 -57 0
-32 -119 -80 0
125 -118 -191 0
32 -178 -112 0
244 131 -15 0
-5 -95 6 0
61 -179 23 0
-194 147 -196 0
9 141 -172 0
40 139 -236 0
-143 135 229 0
-130 -3 124 0
95 58 120 0
-16 147 117 0
-15 -247 -85 0
-260 199 -123 0
167 257 226 0
60 -86 20 0
83 236 -53 0
-238 -242 -119 0
-80 -26 9 0
2 -38 172 0
-141 184 19 0
-144 -34 -198 0
161 -212 -19 0
-72 -179 -61 0
165 -19 -260 0
205 118 -72 0
-106 207 244 0
163 -30 197 0
255 77 -103 0
-88 -9 178 0
-234 -14 -252 0
-252 -140 -165 0
168 72 -208 0
-243 237 -143 0
-215 -135 119 0
-222 -145 -95 0
-114 -169 58 0
-194 -17 -222 0
-143 216 -203 0
-131 -120 175 0
-15 -160 159 0
214 5 227 0
-123 -97 141 0
-205 -227 -96 0
254 -164 235 0
-41 -28 -169 0
-200 28 219 0
-236 -144 89 0
-148 257 -149 0
119 -171 5 0
-75 35 -4 0
-209 -65 -20 0
-67 33 143 0
220 110 17 0
-243 -179 -240 0
89 64 -54 0
-9 -86 -239 0
30 -175 97 0
128 -91 -179 0
-257 -56 -72 0
-66 -198 -161 0
196 -19 20 0
-10 -140 103 0
74 -148 227 0
241 -244 171 0
-141 260 195 0
-11 22 177 0
-214 187 51 0
-197 55 -59 0
62 225 -136 0
40 251 149 0
109 240 -228 0
-104 137 -259 0
-101 84 -250 0
-22 -255 -21 0
154 -90 -190 0
17 186 -224 0
-83 -84 -133 0
-43 -220 -150 0
-96 -249 -122 0
-75 20 183 0
24 -112 -218 0
-68 171 -97 0
-256 82 -10 0
167 138 16 0
218 22 -110 0
-14 -83 250 0
29 252 -34 0
13 -70 38 0
-20 70 225 0
72 -210 106 0
-167 -50 -146 0
-249 -149 -122 0
201 -142 -38 0
40 -134 206 0
-181 -238 -129 0
199 -131 -105 0
128 255 -80 0
-236 80 217 0
256 33 219 0
100 45 -233 0
-53 -1 251 0
139 -167 -46 0
47 -135 -165 0
-164 136 54 0
140 -123 96 0
210 -243 -96 0
136 -175 9 0
-31 96 206 0
-68 -154 -41 0
-94 -176 15 0
-107 36 180 0
-160 -169 200 0
202 57 -175 0
79 178 190 0
-170 54 26 0
236 75 179 0
144 113 -72 0
221 -108 98 0
90 20 -103 0
-196 -211 -20 0
1 25 -63 0
-132 -100 -71 0
187 -44 133 0
9 -81 -259 0
190 -1 6 0
-235 -56 145 0
189 4 87 0
111 -239 163 0
23 -95 -56 0
126 -121 -59 0
-3 -79 84 0
-214 -46 237 0
234 -44 70 0
80 73 175 0
-204 -67 98 0
192 -18 20 0
259 186 165 0
-228 -50 -63 0
91 -201 -167 0
-209 -187 80 0
179 103 -215 0
-212 -5 54 0
13 -157 -199 0
66 -159 -146 0
21 117 243 0
-42 -192 38 0
-129 -175 -76 0
182 161 -121 0
76 67 70 0
197 -37 112 0
195 222 51 0
238 201 -147 0
-92 153 47 0
-5 90 186 0
-187 -129 67 0
-242 -260 108 0
60 89 209 0
-181 -218 177 0
57 141 -182 0
201 -150 -127 0
-10 -126 159 0
-161 -154 -109 0
-186 29 163 0
170 -250 22 0
-76 134 128 0
-13 215 34 0
196 117 -34 0
123 -52 19 0
163 -95 126 0
32 -244 220 0
207 -173 -180 0
112 41 -5 0
-98 117 -163 0
54 82 -221 0
-134 141 -243 0
177 170 -28 0
215 -172 181 0
95 78 -199 0
-89 27 229 0
193 -18 -25 0
115 67 -208 0
-78 191 132 0
-196 243 -168 0
76 -208 -216 0
63 255 48 0
-224 12 -26 0
219 44 169 0
-254 22 109 0
218 137 -155 0
-203 120 -189 0
97 -173 -26 0
-25 252 -162 0
-126 -211 47 0
-22 79 -27 0
120 58 89 0
246 -25 -137 0
-97 2 12 0
-189 211 239 0
-112 -221 -120 0
-157 -196 16 0
242 23 117 0
112 232 -111 0
147 251 -153 0
-241 -70 142 0
-256 108 146 0
52 201 94 0
247 -174 -142 0
81 134 30 0
183 -142 259 0
-143 24 167 0
-149 7 67 0
24 99 247 0
163 72 33 0
223 220 -154 0
-234 179 50 0
-240 28 132 0
66 -150 -168 0
247 92 133 0
-219 232 -93 0
-43 36 131 0
123 -247 -203 0
205 223 -252 0
-155 -242 -35 0
182 -107 -19 0
154 -100 180 0
-44 112 63 0
131 -74 -124 0
-149 -24 -129 0
229 -223 101 0
-126 196 -58 0
167 74 -224 0
-125 -107 129 0
-211 10 182 0
-186 -143 -198 0
-158 171 257 0
-114 -46 -49 0
-175 188 -60 0
-16 143 92 0
-243 -49 39 0
-20 -236 216 0
146 -216 -183 0
-20 -224 -192 0
17 -172 -9 0
-167 -202 75 0
-234 206 212 0
161 230 -149 0
-215 -228 -237 0
72 151 177 0
-8 213 -123 0
142 137 -99 0
-45 21 150 0
233 -184 -108 0
32 -23 167 0
39 -161 -93 0
-222 5 142 0
-195 -121 -254 0
12 9 -200 0
-69 173 207 0
-2 -157 -204 0
229 -164 -38 0
-120 199 145 0
36 -151 -220 0
89 59 -240 0
103 114 165 0
-5 -195 233 0
-209 32 235 0
211 -101 -74 0
-260 184 201 0
-59 -200 31 0
186 32 -144 0
-254 -164 -230 0
-74 150 -25 0
-3 256 139 0
210 41 77 0
-166 107 81 0
242 -260 -135 0
-82 77 188 0
-57 111 97 0
-120 -76 214 0
176 -170 -67 0
-188 -97 -21 0
-255 -157 -254 0
31 -187 181 0
-10 -13 172 0
-92 115 -33 0
-125 238 -105 0
44 64 206 0
-96 152 188 0
-224 40 -24 0
247 76 101 0
141 91 20 0
-137 -121 88 0
104 -185 151 0
-188 112 237 0
-119 -245 208 0
-75 -173 -204 0
-234 -126 159 0
-166 -85 53 0
193 -173 166 0
59 58 -205 0
-22 -230 196 0
110 -35 134 0
-15 165 98 0
213 -241 113 0
-89 218 -26 0
243 112 56 0
220 -52 197 0
-24 93 76 0
44 170 -235 0
-150 -92 -211 0
-191 -112 -140 0
70 45 -66 0
-25 55 -105 0
145 -214 246 0
67 249 50 0
-54 5 -255 0
-211 214 64 0
-46 -140 15 0
-148 -40 37 0
83 157 -38 0
-221 -96 -141 0
-142 -153 -45 0
70 -61 -202 0
-113 -247 -93 0
210 140 33 0
-234 -233 236 0
-252 139 -136 0
-201 259 -58 0
83 221 84 0
-217 -32 51 0
-98 -219 -2 0
-88 -97 -50 0
50 134 -107 0
213 188 -41 0
-184 158 214 0
187 55 217 0
26 92 -237 0
-234 75 141 0
-122 -150 -227 0
-202 253 30 0
88 -186 -216 0
250 159 -173 0
-56 147 205 0
223 156 -2 0
14 -235 66 0
-7 57 -140 0
153 -211 -56 0
137 184 187 0
-130 -55 -100 0
187 24 -68 0
-14 -142 90 0
215 -87 69 0
16 -1 -31 0
-196 -69 -45 0
-156 -103 -85 0
-173 94 124 0
167 5 4 0
-58 -105 -254 0
-61 -31 36 0
256 -247 109 0
-244 -217 63 0
-157 14 186 0
30 -48 210 0
84 -90 94 0
59 253 -130 0
-57 124 -214 0
-165 -40 38 0
153 206 56 0
60 -15 241 0
125 12 48 0
232 228 153 0
115 -254 175 0
-185 127 179 0
-97 -249 -203 0
-189 95 -228 0
183 -79 25 0
-251 -54 -198 0
-178 159 214 0
164 -159 -111 0
-70 51 176 0
-254 -209 106 0
-260 148 184 0
-200 21 -67 0
145 -217 49 0
-6 12 70 0
232 7 -238 0
-242 194 65 0
-150 131 -187 0
-158 49 -25 0
37 -28 -195 0
197 -172 81 0
188 -63 -147 0
223 56 191 0
193 235 45 0
208 -73 109 0
224 151 167 0
95 213 -67 0
191 227 92 0
-152 -154 -149 0
-140 199 257 0
-151 46 187 0
79 224 -41 0
10 71 -125 0
-133 -241 -215 0
-76 197 21 0
153 162 -254 0
-102 5 219 0
-59 101 186 0
87 113 -120 0
-63 44 210 0
156 -47 -238 0
-200 -65 178 0
-66 -87 -41 0
-194 204 -225 0
94 -246 43 0
58 203 -141 0
209 -88 240 0
241 104 57 0
241 38 57 0
49 238 -198 0
7 -196 -137 0
140 -172 188 0
-183 -67 121 0
-179 -132 191 0
75 164 -158 0
222 -64 -152 0
42 60 -8 0
-23 -59 -56 0
68 217 -197 0
67 -87 -200 0
-27 -76 173 0
-253 -192 129 0
98 158 -95 0
-44 161 -223 0
132 -94 117 0
-189 87 247 0
222 -227 229 0
-114 224 -234 0
172 -113 43 0
251 207 98 0
59 167 -147 0
134 -225 -155 0
-19 149 118 0
-153 84 83 0
167 -80 172 0
143 -177 -73 0
182 197 9 0
-44 -133 -8 0
53 -119 195 0
33 -106 113 0
-260 41 254 0
-6 -129 -67 0
103 -232 -126 0
159 126 77 0
256 -40 52 0
172 -195 -190 0
-17 -27 151 0
100 104 -30 0
-20 -21 164 0
-114 -143 -239 0
224 -182 -73 0
-173 186 245 0
-82 186 71 0
-168 -50 -12 0
214 252 -125 0
-205 -164 -61 0
36 -64 -91 0
125 208 4 0
-188 -253 -232 0
-178 -91 -249 0
259 234 11 0
-25 2 -86 0
-112 -211 -186 0
-53 -4 -22 0
-88 11 -19 0
145 -260 16 0
-181 67 -191 0
-159 -105 133 0
-202 175 -96 0
-7 -240 11 0
-240 -219 52 0
2 180 151 0
-63 200 15 0
167 132 165 0
61 153 56 0
-79 -253 -180 0
-210 50 -161 0
-247 36 -133 0
-36 -105 -183 0
-206 46 -249 0
249 72 -175 0
-252 -102 -112 0
106 30 243 0
206 40 -108 0
-39 -192 123 0
-105 118 187 0
-15 -246 135 0
-252 101 107 0
205 -112 233 0
-93 -230 49 0
-165 140 -174 0
165 102 -47 0
158 204 -39 0
251 -47 -54 0
209 -211 -158 0
136 -254 -68 0
-142 251 201 0
167 75 -223 0
103 29 132 0
-193 96 -259 0
-209 -58 65 0
-133 -184 -196 0
168 7 -135 0
-113 5 -173 0
-228 -83 150 0
-210 -24 -95 0
-124 147 -163 0
-18 -44 -85 0
108 253 -18 0
96 -258 24 0
-190 30 71 0
-80 108 -250 0
-199 228 -149 0
-117 151 60 0
-205 -162 -179 0
170 -60 -213 0
100 145 -173 0
-53 -210 -69 0
3 -145 233 0
-208 12 -212 0
86 -190 -252 0
163 -165 258 0
253 52 138 0
163 29 -228 0
109 -56 -218 0
-254 49 174 0
40 89 -198 0
68 -77 -49 0
56 -219 -211 0
237 73 140 0
-102 207 159 0
-152 -107 47 0
69 205 -250 0
197 183 -58 0
-241 152 201 0
-139 150 109 0
-94 -153 -188 0
33 -24 62 0
-129 89 103 0
226 -99 -38 0
76 -185 -92 0
182 88 -232 0
-234 109 -130 0
-154 63 148 0
-124 191 229 0
63 -70 52 0
-84 64 30 0
111 -228 -32 0
21 -44 -176 0
-202 -16 43 0
-13 247 99 0
49 41 219 0
69 -29 162 0
-139 188 179 0
-156 -141 235 0
55 -92 89 0
78 236 -252 0
-236 231 40 0
196 -244 9 0
96 -208 -64 0
90 13 -84 0
205 -183 -188 0
-181 9 -83 0
-182 98 242 0
5 -77 50 0
-30 -58 182 0
56 253 -2 0
223 -87 -256 0
-171 -58 -71 0
-98 126 260 0
87 -62 -99 0
-34 -47 -201 0
-42 -27 -174 0
21 95 52 0
191 -163 95 0
-12 14 -37 0
244 -219 160 0
-29 -18 190 0
-58 245 196 0
124 -46 -221 0
-121 105 -18 0
-224 223 -151 0
-68 -209 187 0
-77 -142 -85 0
-158 -215 -94 0
77 229 -197 0
-190 41 -195 0
-188 1 -245 0
-210 49 227 0
159 -19 -107 0
-19 -35 17 0
180 165 -220 0
-109 -29 -204 0
-141 -211 -240 0
-254 236 -129 0
123 -197 -8 0
29 136 -52 0
-143 102 109 0
40 -138 154 0
-23 -41 -70 0
-141 -228 224 0
-133 235 134 0
-93 -256 29 0
-29 -166 197 0
64 -158 101 0
21 -187 -246 0
-53 -171 256 0
208 -223 204 0
100 -194 -240 0
215 48 -7 0
158 -136 40 0
61 228 -256 0
-235 -41 -4 0
34 -100 -213 0
204 177 -257 0
230 158 131 0
9 233 -203 0
199 228 -169 0
6 126 -184 0
-133 -196 48 0
-259 29 -20 0
-51 28 230 0
128 141 -7 0
-110 -151 81 0
-38 176 -30 0
-240 -163 174 0
-212 232 -228 0
-153 102 198 0
53 -233 70 0
-51 55 174 0
-114 110 195 0
173 -148 -46 0
232 -234 -19 0
145 123 -175 0
-237 -249 224 0
-232 252 -77 0
171 138 -73 0
-216 -210 -11 0
100 -97 125 0
210 -30 -234 0
249 -67 112 0
-35 -220 6 0
257 -154 -135 0
-181 216 -244 0
32 248 -224 0
134 29 96 0
-168 197 -7 0
254 -236 252 0
98 -190 183 0
106 -151 -170 0
45 18 98 0
-107 -51 74 0
254 145 135 0
144 -8 76 0
-148 108 52 0
52 -194 33 0
-165 234 -46 0
-56 255 -82 0
11 41 -92 0
-2 124 -5 0
57 -250 -8 0
203 -139 -148 0
-146 198 -138 0
100 179 90 0
-49 50 -153 0
210 186 46 0
-138 -129 135 0
202 -251 -36 0
25 -193 -238 0
-258 199 214 0
-81 129 132 0
151 259 -149 0
-94 -250 -243 0
-20 72 -222 0
-173 -10 215 0
-29 -192 180 0
87 197 -141 0
-158 -154 -97 0
-214 204 104 0
-171 -220 226 0
2 -126 -211 0
-94 -131 -197 0
-11 9 98 0
121 -224 -193 0
-200 158 38 0
249 -34 -254 0
156 144 -142 0
42 -2 184 0
-43 149 132 0
136 11 -154 0
