c Random 3-SAT instance at phase transition
c vars=130 clauses=555 ratio=4.267 seed=3
p cnf 130 555
85 -13 -128 0
-32 53 -47 0
64 -123 -120 0
-31 118 127 0
-25 -130 -33 0
90 -57 -3 0
-65 47 -93 0
-14 76 -26 0
-118 -92 126 0
-122 -45 -89 0
29 115 127 0
-43 -48 -20 0
-75 27 107 0
37 -56 -51 0
-128 110 -13 0
-15 -52 120 0
110 -89 -118 0
96 -18 -58 0
-108 -65 -67 0
-75 -56 -53 0
-60 -30 99 0
62 -39 -110 0
-22 106 103 0
-118 109 99 0
-96 -9 63 0
24 -39 -29 0
-45 40 -128 0
68 -82 87 0
-113 -106 49 0
124 61 92 0
30 38 116 0
-14 -126 -26 0
23 -3 26 0
-36 -116 38 0
-40 -38 -119 0
69 -52 112 0
-39 86 -48 0
-60 -72 -85 0
-100 29 -1 0
-125 -6 112 0
-13 124 -92 0
-12 71 -63 0
-67 72 -125 0
16 87 -32 0
83 10 22 0
-92 -127 83 0
118 48 -6 0
50 -79 -91 0
105 59 -75 0
28 94 -33 0
-124 -1 -17 0
108 51 48 0
-49 80 88 0
-117 6 -97 0
4 -129 -6 0
-119 -29 16 0
79 -125 62 0
-107 -45 -128 0
129 -89 -29 0
107 27 62 0
-59 -71 108 0
-51 -38 32 0
123 -33 63 0
12 21 80 0
67 43 42 0
126 42 -122 0
-91 62 120 0
29 81 11 0
6 -84 -25 0
-31 -92 -18 0
-57 65 -67 0
88 24 43 0
40 25 -21 0
-76 75 -119 0
91 -56 33 0
-42 8 43 0
123 36 81 0
-121 -107 9 0
72 42 100 0
-20 34 -77 0
-111 120 42 0
107 69 -9 0
70 -19 -13 0
-8 -101 89 0
90 7 66 0
-1 81 -50 0
-128 24 -121 0
113 -76 -28 0
4 67 -38 0
22 -47 126 0
-25 46 -128 0
114 -78 -57 0
-59 -112 -117 0
30 -126 89 0
-45 115 15 0
47 61 101 0
26 -12 67 0
-92 114 -63 0
-112 93 125 0
22 -115 -118 0
47 4 120 0
69 9 81 0
-94 -112 -23 0
94 126 -33 0
-50 77 3 0
49 -55 41 0
-130 -94 -115 0
63 130 -99 0
-109 -50 2 0
88 -97 -125 0
10 46 -30 0
-102 -5 -52 0
-85 104 74 0
-32 -11 21 0
-81 -115 -14 0
119 -89 71 0
45 47 69 0
-66 -22 -128 0
-25 68 22 0
-44 -23 101 0
63 -48 41 0
120 -105 18 0
-121 -23 105 0
-129 -101 -19 0
-71 -21 54 0
-47 -87 55 0
-125 96 48 0
-60 -97 71 0
-100 -68 -36 0
62 117 -22 0
-128 124 -37 0
116 129 26 0
-37 122 96 0
39 47 -96 0
-82 127 -47 0
-109 -24 112 0
8 -59 -6 0
26 68 115 0
68 23 77 0
-113 44 -86 0
-120 -86 69 0
-14 12 -97 0
-32 -30 66 0
-7 -113 -87 0
-44 5 95 0
80 -39 123 0
-104 -60 73 0
14 -113 -95 0
-109 -37 117 0
-129 -114 -111 0
60 71 73 0
84 -125 -53 0
-76 118 -13 0
33 -36 -116 0
-99 107 19 0
-82 -80 -1 0
71 -52 99 0
-57 50 108 0
-56 120 -125 0
-87 -86 -120 0
37 -68 63 0
74 116 61 0
-29 -128 -90 0
-73 91 -44 0
-92 -112 126 0
-106 130 74 0
53 28 71 0
-103 -22 -50 0
35 -59 99 0
29 -79 80 0
-104 129 85 0
-126 120 -92 0
-79 13 102 0
47 -4 118 0
84 -89 -2 0
-29 44 83 0
-17 16 -99 0
130 -9 34 0
-42 113 35 0
125 -6 -51 0
-67 27 -26 0
66 97 18 0
-52 28 69 0
23 -127 -101 0
-5 108 37 0
-88 16 -111 0
-46 -88 29 0
70 -122 -99 0
-32 51 -119 0
-6 -127 -50 0
-47 116 -19 0
113 -121 6 0
59 42 -57 0
119 -12 -102 0
-118 104 96 0
-111 68 -32 0
-29 -21 99 0
-1 114 53 0
-108 124 -109 0
104 26 -28 0
-25 35 -15 0
-52 -19 -97 0
96 -71 -21 0
87 7 103 0
125 61 -78 0
-121 -74 -98 0
10 65 -57 0
-45 37 12 0
-60 71 -124 0
25 -89 -45 0
43 111 -32 0
2 120 -66 0
110 -101 -29 0
54 45 -62 0
-88 98 -103 0
130 29 -36 0
98 56 -36 0
-6 27 68 0
67 29 54 0
39 -61 -94 0
-12 -11 36 0
-41 126 -44 0
96 68 -85 0
-7 -130 109 0
-84 -66 94 0
106 -87 -121 0
-2 11 -56 0
-98 111 -43 0
-58 49 43 0
3 20 -129 0
-9 57 -32 0
-116 -121 -112 0
118 25 -92 0
78 95 -67 0
30 -65 72 0
-123 -97 60 0
28 -93 -128 0
-39 24 18 0
90 119 -69 0
-12 63 94 0
103 -130 17 0
-118 42 -91 0
4 7 -12 0
-119 -60 11 0
34 116 -31 0
30 4 73 0
32 -102 -8 0
126 45 41 0
-70 114 95 0
-36 -98 -124 0
50 20 8 0
-29 23 -92 0
-4 -113 111 0
-7 52 20 0
121 125 -71 0
-91 68 30 0
16 70 -128 0
32 80 -84 0
67 110 -51 0
121 6 -37 0
18 -2 -73 0
30 128 63 0
-40 2 98 0
-73 -56 -33 0
-23 114 97 0
86 110 -89 0
2 -6 -124 0
2 -129 -57 0
-74 -33 116 0
-37 -109 128 0
73 -120 -82 0
85 -37 -61 0
-46 -76 51 0
-44 -8 123 0
127 -108 53 0
55 -91 -79 0
103 -46 -85 0
-75 -128 116 0
53 66 -42 0
67 -100 126 0
-23 -107 -117 0
50 52 -96 0
22 -59 64 0
-79 -44 46 0
62 49 -55 0
94 30 -55 0
-119 -109 39 0
53 -97 -96 0
-106 123 -121 0
-20 -103 121 0
-83 -24 -23 0
-51 119 -66 0
42 39 -74 0
-82 -8 -72 0
-27 -63 81 0
-85 71 39 0
-123 47 -116 0
-47 -11 -95 0
-101 -63 102 0
72 84 -73 0
61 32 -79 0
-109 36 84 0
15 9 -85 0
31 126 -83 0
-67 -121 -125 0
-82 49 -46 0
23 119 -102 0
7 -124 3 0
-66 4 63 0
-79 -4 9 0
-19 -33 25 0
-101 41 -70 0
-9 65 93 0
26 69 48 0
-1 24 -27 0
124 63 79 0
115 -17 34 0
-61 -127 102 0
-13 48 -49 0
107 -33 85 0
-81 64 -1 0
60 79 -44 0
-40 -124 -37 0
-41 111 96 0
76 66 -16 0
101 69 -64 0
-19 86 35 0
-123 116 -6 0
124 -59 -40 0
-40 -14 56 0
102 -61 -18 0
124 65 100 0
89 -130 84 0
32 7 -107 0
23 109 69 0
-49 -110 -82 0
53 64 -91 0
-23 67 20 0
42 -34 88 0
23 -113 -123 0
-28 13 -88 0
94 -100 110 0
101 -20 39 0
88 -78 -35 0
-59 -16 -22 0
-5 -77 -15 0
95 -42 84 0
-10 118 -80 0
85 114 30 0
12 -69 118 0
-91 127 49 0
16 -89 -57 0
-61 29 102 0
73 19 -109 0
-29 -39 25 0
97 34 -49 0
-111 -94 55 0
77 99 -58 0
-31 62 -7 0
-8 51 -26 0
-45 93 128 0
68 -8 123 0
-122 40 110 0
89 -55 -79 0
40 49 103 0
18 69 -127 0
-107 -25 -86 0
-90 -46 37 0
-83 85 -35 0
120 -74 91 0
-6 -10 46 0
97 37 53 0
83 1 -8 0
114 89 29 0
-80 -90 -23 0
-16 130 51 0
-70 48 -94 0
108 -2 78 0
-65 78 105 0
2 -76 -1 0
35 -30 -90 0
77 37 43 0
-65 34 -71 0
22 112 79 0
-107 18 21 0
-8 113 -41 0
-55 100 47 0
-9 -43 -103 0
-36 -35 101 0
117 -90 15 0
-46 69 -83 0
70 53 127 0
-117 115 68 0
-20 11 54 0
25 -108 -27 0
-52 63 10 0
-37 -119 85 0
39 -92 108 0
123 -118 -71 0
-94 112 -109 0
-72 -41 -66 0
34 -9 84 0
-128 44 -34 0
-52 -71 -49 0
68 84 64 0
103 -17 83 0
85 -18 9 0
-10 -60 89 0
96 -14 74 0
-17 11 -110 0
66 88 -8 0
-3 48 40 0
31 46 90 0
-102 118 -78 0
-95 9 5 0
-49 126 -94 0
-15 72 -68 0
23 -60 2 0
1 48 111 0
91 -38 -105 0
-64 97 116 0
-27 84 -37 0
-43 -50 87 0
-100 -74 -96 0
91 84 129 0
-50 9 -41 0
27 -8 129 0
-60 -16 85 0
-5 74 85 0
-43 -94 92 0
5 -11 -2 0
-13 -74 -50 0
10 84 -59 0
-119 83 -91 0
126 88 103 0
127 48 -52 0
104 -3 76 0
-72 -27 99 0
-74 -62 -22 0
28 -102 -15 0
128 -69 -101 0
111 -19 119 0
-13 63 -67 0
-6 -94 -122 0
-72 -104 -14 0
-60 95 79 0
-73 48 89 0
85 22 11 0
106 -127 118 0
-102 -71 -90 0
1 52 -8 0
80 -39 107 0
-54 42 3 0
15 -110 -62 0
78 -59 -39 0
-114 100 -69 0
95 -14 118 0
-21 -117 -85 0
116 -77 2 0
106 -72 54 0
-72 45 -99 0
-61 -16 25 0
-70 118 -60 0
-111 3 51 0
69 -27 92 0
26 87 -66 0
-17 109 72 0
9 7 -56 0
-122 90 53 0
-105 121 26 0
-120 -102 -108 0
-49 45 48 0
-46 36 -119 0
117 -125 129 0
-50 9 71 0
-32 110 38 0
-91 -32 52 0
79 114 -116 0
-86 130 -26 0
98 124 125 0
-53 5 89 0
42 -59 127 0
-99 28 -30 0
97 -113 55 0
-41 126 -12 0
-55 41 -30 0
6 51 -47 0
-24 -113 33 0
-11 -97 -10 0
-119 -18 -109 0
63 -52 -73 0
-101 125 -22 0
-84 105 -2 0
123 75 73 0
92 13 117 0
-77 -21 -58 0
49 -78 75 0
31 83 -62 0
-121 -84 -19 0
121 111 -62 0
-73 26 15 0
84 17 70 0
-18 96 37 0
113 -116 50 0
92 -47 23 0
-56 -122 93 0
-100 116 -21 0
49 -120 -24 0
48 -71 -93 0
-112 -65 -105 0
43 66 -79 0
82 -128 -119 0
-21 97 -82 0
4 -67 41 0
123 110 58 0
23 -117 -64 0
-27 -121 -1 0
56 70 84 0
83 -78 24 0
-45 105 56 0
-92 20 95 0
-73 109 7 0
-95 90 68 0
89 16 120 0
-21 -17 107 0
8 51 100 0
100 -65 -28 0
13 29 -88 0
40 21 -57 0
27 66 35 0
-87 58 38 0
49 122 57 0
112 24 111 0
71 78 74 0
11 -53 -105 0
126 -15 -48 0
-13 32 95 0
-121 55 -94 0
-58 5 -41 0
-63 -128 -86 0
16 -1 -3 0
-118 -73 -90 0
95 -44 86 0
120 -124 82 0
12 45 -4 0
118 -61 -30 0
74 -2 -40 0
-101 -97 119 0
60 99 -20 0
37 -88 -100 0
-34 58 16 0
96 130 83 0
102 32 13 0
-46 93 101 0
85 -105 -94 0
