c Random 3-SAT instance at phase transition
c vars=241 clauses=1028 ratio=4.267 seed=4
p cnf 241 1028
-168 129 21 0
-151 52 236 0
178 88 -231 0
145 -163 217 0
74 35 -164 0
-158 -92 175 0
216 -6 3 0
85 22 81 0
-107 -228 -23 0
186 -223 -12 0
162 -225 -7 0
-229 76 -236 0
132 -27 -5 0
-176 62 -210 0
-237 102 -217 0
92 -60 228 0
-52 -158 -136 0
-65 157 -149 0
144 77 187 0
149 227 -47 0
-173 134 -142 0
-60 173 116 0
229 -225 -21 0
78 49 -181 0
-8 2 53 0
-178 56 -220 0
104 -34 -64 0
-89 24 -60 0
217 208 38 0
234 223 87 0
-210 -101 -7 0
-91 137 40 0
131 -66 -33 0
184 166 38 0
7 -81 17 0
-179 76 -174 0
152 -67 -131 0
-168 -42 183 0
-209 25 127 0
-186 50 117 0
-181 -238 -241 0
48 -225 121 0
98 -50 -91 0
-94 -164 -171 0
104 80 121 0
50 125 -94 0
-222 -134 -181 0
81 -199 -211 0
-224 124 201 0
-117 157 185 0
-236 -135 50 0
130 100 194 0
-15 -162 67 0
-178 32 39 0
-94 -38 41 0
161 162 60 0
-241 -132 -240 0
-232 144 -186 0
102 211 97 0
185 -146 4 0
23 -238 -113 0
-219 -42 21 0
-153 82 3 0
20 195 -173 0
-113 58 -14 0
10 65 105 0
230 134 225 0
-119 148 -6 0
31 -144 75 0
-154 -191 -97 0
2 -169 -105 0
125 -170 115 0
-111 -9 -218 0
89 -152 15 0
-89 -54 -63 0
63 70 -118 0
-149 -203 48 0
-86 24 226 0
-174 -88 -10 0
-204 185 -229 0
92 -153 234 0
83 120 -27 0
-56 -133 108 0
-184 195 -135 0
-199 -217 202 0
168 53 30 0
191 -98 -121 0
-83 -145 215 0
93 -57 179 0
13 -86 -146 0
153 -190 -38 0
-113 -213 175 0
132 -85 -59 0
-233 -192 199 0
-58 201 91 0
-156 152 -214 0
3 106 -54 0
-138 25 52 0
150 151 -14 0
174 -125 -154 0
-192 -123 141 0
-206 -35 -131 0
-232 -62 -161 0
-24 225 107 0
101 -150 36 0
55 -73 -153 0
137 -223 -181 0
-55 -95 83 0
-228 156 -13 0
-120 -121 -153 0
136 221 216 0
-205 49 -91 0
79 -26 102 0
172 26 154 0
10 205 -241 0
223 -52 144 0
68 58 -108 0
113 -141 84 0
-192 -5 28 0
36 223 -141 0
-141 90 203 0
-135 42 5 0
-20 -39 74 0
143 -159 141 0
163 -95 -33 0
195 -202 74 0
134 132 -47 0
19 -193 24 0
-12 176 -236 0
-50 -62 -5 0
238 60 -122 0
-101 -138 -222 0
81 -42 108 0
-61 -188 25 0
48 167 144 0
110 -134 150 0
31 -161 -138 0
65 193 -41 0
-144 191 177 0
239 233 -39 0
-209 192 218 0
109 -79 -117 0
-154 -207 -27 0
2 134 62 0
51 227 180 0
81 180 -223 0
234 -111 -17 0
226 241 167 0
-185 240 -127 0
-96 57 138 0
-109 188 111 0
-6 156 -71 0
-157 -52 -3 0
92 -150 -241 0
32 224 -7 0
-117 -22 127 0
-193 8 98 0
-39 163 -166 0
-73 -21 112 0
146 74 211 0
-74 150 109 0
112 -223 189 0
-180 236 -166 0
-191 164 18 0
-41 82 -159 0
-120 -206 -167 0
-157 158 -66 0
-17 233 -142 0
80 189 75 0
70 125 34 0
139 -105 206 0
132 -199 51 0
-217 152 -224 0
175 -65 168 0
58 29 -151 0
-103 190 -60 0
80 -211 143 0
11 -101 -166 0
-224 -143 -106 0
69 -230 39 0
-189 104 -14 0
113 -108 -137 0
181 124 75 0
226 212 -234 0
208 133 -111 0
143 71 -193 0
148 196 -67 0
-105 -196 -166 0
226 -75 109 0
-62 -11 23 0
97 -162 40 0
-159 106 210 0
-23 77 -107 0
-25 122 -220 0
200 136 -69 0
101 -174 155 0
208 -11 191 0
139 138 -208 0
199 235 131 0
-51 -234 127 0
93 53 78 0
180 -232 147 0
-149 -130 -148 0
-31 -151 -43 0
139 -63 -171 0
-48 222 150 0
-223 46 115 0
150 -119 -24 0
-126 140 -115 0
224 106 -239 0
240 111 17 0
59 -21 -210 0
3 -162 15 0
148 -217 -18 0
225 168 -15 0
-167 -149 44 0
157 95 -29 0
-77 -57 -62 0
124 178 -92 0
166 21 -194 0
-97 -69 201 0
-155 194 -239 0
231 -190 -151 0
136 -161 -100 0
-122 -201 232 0
89 -42 143 0
96 37 141 0
-186 -85 6 0
77 143 201 0
-165 -145 201 0
-71 -118 -222 0
-92 -114 -38 0
17 229 193 0
-190 202 219 0
-232 31 -144 0
-62 236 -36 0
8 207 81 0
136 206 -25 0
42 -99 -167 0
-147 -170 127 0
-92 -53 32 0
-130 -41 -140 0
-127 13 15 0
-64 -79 -86 0
-192 -222 196 0
-152 38 120 0
-26 61 -28 0
-94 -74 141 0
-205 237 76 0
158 -118 -190 0
-144 -236 -188 0
-76 58 -56 0
121 -73 219 0
166 -125 -66 0
142 -78 239 0
68 123 177 0
161 -221 -189 0
240 -163 -9 0
204 177 -39 0
-186 -128 89 0
163 -77 224 0
-137 -112 -70 0
148 -177 -181 0
64 -153 -111 0
-53 130 -42 0
192 174 -95 0
108 168 -185 0
-208 -116 -134 0
-3 81 146 0
184 -213 -223 0
-118 -49 -94 0
-211 -10 -68 0
-124 189 183 0
-204 195 -121 0
-11 -175 -30 0
-31 218 39 0
-32 68 -179 0
92 174 227 0
57 -127 -124 0
229 -126 -4 0
42 194 128 0
160 -113 190 0
160 4 -224 0
-146 23 -58 0
-231 -20 77 0
143 -74 94 0
60 5 -133 0
102 -43 86 0
40 171 -67 0
-21 -78 -150 0
98 -189 -114 0
58 91 175 0
-53 -185 232 0
177 62 179 0
-197 -88 -75 0
-46 182 13 0
116 -173 -1 0
145 -15 198 0
67 115 31 0
-104 -236 -65 0
-193 -111 -194 0
66 -75 -172 0
28 72 151 0
-89 184 -170 0
4 -118 135 0
-131 3 108 0
-48 196 92 0
238 1 -156 0
64 -213 -142 0
102 -202 20 0
137 -148 -41 0
163 207 126 0
-206 10 144 0
211 32 126 0
-189 65 -147 0
237 190 144 0
-39 -61 -13 0
-68 -143 -112 0
-233 97 31 0
-225 9 19 0
-129 -57 110 0
179 226 4 0
21 -70 136 0
-222 -220 -172 0
94 -27 -238 0
-179 -196 -207 0
-183 194 32 0
-131 -82 6 0
-228 132 68 0
-198 236 -121 0
208 32 -113 0
181 19 -220 0
-103 203 -99 0
36 -221 111 0
-126 117 160 0
-107 79 -138 0
17 4 -172 0
187 -150 -35 0
-212 125 -209 0
185 200 3 0
109 47 53 0
89 -114 -60 0
-80 186 -119 0
-89 -153 133 0
-128 -175 -45 0
-163 185 83 0
-234 -88 -22 0
100 8 -12 0
-125 212 -22 0
192 -80 32 0
-233 121 9 0
-205 93 223 0
-149 106 -237 0
-59 -159 239 0
-35 116 -16 0
-225 100 -74 0
70 126 178 0
49 187 -184 0
-108 27 201 0
31 187 -15 0
-165 114 -59 0
28 -173 139 0
-157 -51 -43 0
-29 -18 -61 0
-187 142 -3 0
-47 -231 -151 0
151 -14 -77 0
-223 204 -24 0
-177 43 230 0
-7 99 -199 0
20 106 -26 0
111 16 -161 0
-5 209 240 0
143 -135 133 0
-54 165 -92 0
65 -168 218 0
23 -131 165 0
182 6 -47 0
-58 150 136 0
169 135 -47 0
-185 96 -182 0
30 -51 -95 0
217 143 197 0
28 -97 -38 0
-215 131 108 0
190 -212 67 0
-79 -146 21 0
74 230 -238 0
-121 -187 45 0
220 -198 213 0
99 -152 164 0
-175 -72 -226 0
47 229 57 0
223 -166 -1 0
-197 -106 -208 0
-49 144 110 0
214 86 -88 0
94 147 -118 0
-61 225 73 0
197 -166 230 0
66 -45 12 0
102 79 -103 0
222 77 -165 0
-209 -240 -89 0
62 -32 -17 0
-160 -154 -120 0
187 -29 87 0
65 107 -93 0
-210 -8 -163 0
136 49 -101 0
-232 216 -234 0
202 185 165 0
212 -162 49 0
-159 -227 -47 0
95 -93 180 0
149 -32 -225 0
74 137 -177 0
34 -174 -115 0
107 109 9 0
-23 9 -125 0
78 47 170 0
144 -211 42 0
-13 124 68 0
-79 72 141 0
-212 133 186 0
-158 -2 151 0
62 109 -83 0
-105 141 -16 0
-19 -4 110 0
-145 -158 113 0
40 -182 146 0
116 -229 -75 0
137 101 62 0
-24 -59 -54 0
77 161 50 0
205 91 -83 0
-48 106 -67 0
-132 54 -105 0
11 -140 231 0
-125 -37 167 0
-116 -24 178 0
225 -101 145 0
229 -221 -208 0
101 -99 -75 0
222 238 -127 0
-214 231 -14 0
56 -158 -60 0
191 -99 93 0
-126 -63 210 0
202 28 -52 0
-138 -141 95 0
56 -76 -211 0
130 176 -109 0
-99 116 164 0
37 160 -235 0
60 -168 91 0
125 175 192 0
190 -193 197 0
87 66 3 0
64 -1 155 0
-13 185 181 0
-74 98 -72 0
203 -43 129 0
62 115 -23 0
-237 203 168 0
-35 -133 132 0
59 -77 -9 0
-47 155 -80 0
93 172 -102 0
106 178 -167 0
134 -240 69 0
123 64 -184 0
-53 98 235 0
-194 156 -21 0
-106 -213 99 0
-14 168 -131 0
-233 109 -101 0
174 -86 232 0
4 -236 -38 0
-153 -238 74 0
-130 2 88 0
-77 50 135 0
89 -22 240 0
209 -120 52 0
79 -133 -158 0
-204 -13 -126 0
-120 -113 138 0
-4 -200 -75 0
-109 -127 22 0
-124 13 48 0
-96 -136 99 0
196 -207 45 0
234 -74 -2 0
-91 -65 223 0
15 96 100 0
-14 -204 -100 0
124 140 -25 0
-190 -198 147 0
9 174 159 0
241 206 171 0
16 88 159 0
-163 53 94 0
6 8 -33 0
-60 -223 12 0
81 128 142 0
79 225 -211 0
-75 -159 134 0
-103 210 31 0
31 -77 -212 0
155 -226 -231 0
104 -159 124 0
138 -192 112 0
-134 74 -137 0
182 -209 46 0
-208 120 -179 0
-2 168 -99 0
66 -12 -226 0
-134 129 -216 0
-45 17 179 0
218 237 97 0
-181 226 199 0
146 -104 -220 0
196 223 -148 0
166 30 -32 0
211 81 -9 0
226 138 83 0
64 82 -232 0
-64 -212 -43 0
-124 -180 100 0
-176 237 -206 0
17 214 207 0
-22 180 46 0
103 -28 -110 0
-237 196 76 0
133 -40 -142 0
-175 92 -169 0
109 -72 -122 0
-174 178 -99 0
-152 -146 119 0
238 -224 -113 0
-136 137 -69 0
-161 -177 173 0
-179 112 -37 0
160 89 -45 0
165 83 171 0
-55 181 -54 0
-235 96 -71 0
178 25 -78 0
152 -193 -70 0
-7 93 -104 0
115 -135 -190 0
144 167 121 0
164 219 -114 0
-22 -104 66 0
-32 -217 -174 0
54 47 207 0
91 -8 71 0
-95 -169 223 0
195 198 81 0
-220 -89 99 0
-199 -100 117 0
-23 137 -60 0
-76 105 223 0
207 -77 -238 0
-192 -144 139 0
-27 -177 -5 0
-29 -193 -194 0
-27 -232 -158 0
-20 50 -80 0
64 180 54 0
14 113 -54 0
-46 -84 64 0
-117 -88 73 0
-30 110 -231 0
117 227 155 0
58 -95 59 0
-198 -45 -13 0
-215 -150 -216 0
-45 -241 -184 0
-185 -166 143 0
158 52 13 0
212 -2 169 0
121 70 170 0
-203 221 133 0
200 -23 85 0
-159 -29 135 0
-107 42 241 0
98 -134 -97 0
-82 -97 -234 0
123 -78 22 0
126 143 -109 0
-111 77 197 0
29 183 -126 0
-102 167 -19 0
106 211 212 0
218 -85 28 0
30 75 118 0
237 138 -209 0
-108 -191 84 0
136 -224 -159 0
121 -212 -141 0
-221 224 -175 0
223 -117 -234 0
110 -152 -113 0
124 109 -27 0
196 102 222 0
-5 -189 -207 0
-196 -26 102 0
-54 26 -147 0
-230 -35 146 0
-182 98 -135 0
-80 175 180 0
-164 -219 -15 0
-95 -84 -105 0
-78 138 93 0
52 198 -232 0
-15 200 -31 0
-41 -237 74 0
-48 128 -210 0
99 101 -65 0
-116 92 106 0
-82 73 138 0
187 -43 151 0
140 -225 -219 0
203 10 -177 0
122 236 24 0
34 99 86 0
-178 -159 138 0
-129 -229 35 0
29 106 -118 0
-232 -87 36 0
-30 -205 -114 0
-159 39 -64 0
138 136 21 0
220 -69 -11 0
167 213 154 0
-127 -94 167 0
-233 -201 -166 0
-191 -137 -89 0
129 75 -152 0
-78 208 -14 0
-190 71 -154 0
-212 196 20 0
176 20 74 0
-34 -187 72 0
-224 -218 -92 0
-78 9 -58 0
154 133 105 0
-81 -240 31 0
50 -41 95 0
-112 -91 -59 0
202 53 -130 0
-148 232 228 0
-118 -64 27 0
-10 68 -46 0
108 -174 -12 0
60 -63 119 0
-127 93 87 0
35 175 152 0
52 -2 -94 0
43 -135 -145 0
-161 -35 80 0
130 -69 -67 0
-123 -70 237 0
-170 -87 -37 0
83 -190 -50 0
-103 -153 -176 0
31 127 -150 0
-214 76 88 0
-167 -74 13 0
96 -26 -165 0
13 -129 154 0
5 -8 2 0
184 55 -80 0
-195 -11 227 0
127 91 -219 0
-121 51 -35 0
-99 27 -170 0
-61 122 213 0
-16 192 -199 0
204 170 78 0
16 -235 191 0
-233 224 -18 0
8 83 -116 0
-235 -176 -32 0
-59 155 -151 0
226 205 -156 0
-40 -73 211 0
66 -2 214 0
206 216 -140 0
150 238 -27 0
-140 158 -15 0
-39 -160 54 0
108 4 206 0
-207 8 9 0
12 -178 239 0
-102 -104 -148 0
51 -126 -50 0
-187 137 192 0
10 77 -156 0
80 195 -120 0
161 237 99 0
-226 -84 -90 0
-58 221 -127 0
-38 -139 200 0
131 191 55 0
156 147 -162 0
239 -208 115 0
-42 -65 -36 0
46 77 -15 0
-146 -53 -99 0
43 -210 -85 0
2 24 -113 0
229 -158 179 0
-50 179 32 0
-56 -17 235 0
-59 -161 85 0
-26 -211 -2 0
125 -51 237 0
-136 201 180 0
-138 -94 113 0
141 -80 217 0
158 97 63 0
136 -106 -150 0
-38 -76 -196 0
118 145 -200 0
113 8 -96 0
-82 -73 -228 0
27 116 -19 0
-106 140 -58 0
63 53 -62 0
167 151 17 0
132 -92 -200 0
38 -216 -238 0
-51 -50 -174 0
-9 -40 -129 0
27 189 -142 0
-135 -194 -9 0
222 -235 -159 0
-127 159 35 0
213 -198 -26 0
213 121 209 0
-104 37 202 0
-52 146 -195 0
204 -14 -110 0
-186 -137 -58 0
225 156 52 0
200 -183 -125 0
17 231 201 0
-8 219 184 0
158 109 139 0
104 136 147 0
8 -167 131 0
82 172 -213 0
-102 -90 -35 0
170 -144 -181 0
208 -78 144 0
187 73 -185 0
-7 -155 127 0
-67 -61 -211 0
-42 -128 39 0
103 229 27 0
155 47 139 0
151 -73 155 0
-99 153 -160 0
229 -8 55 0
206 -174 -88 0
229 -158 120 0
-35 167 -201 0
-138 -177 -231 0
53 210 3 0
79 165 233 0
-138 84 -120 0
113 -135 -170 0
78 -75 -29 0
-34 -206 205 0
-25 231 169 0
-30 -225 33 0
-238 22 89 0
71 9 181 0
40 -193 105 0
59 -57 -200 0
137 155 -171 0
-17 191 16 0
-206 -76 51 0
204 177 33 0
-4 48 -42 0
-20 -241 -56 0
149 -153 14 0
-111 -148 -141 0
-29 -112 219 0
26 -241 -44 0
45 -129 -131 0
-232 14 185 0
217 -181 120 0
-145 47 93 0
-43 223 -152 0
67 -224 -108 0
217 152 -147 0
36 81 -56 0
112 -195 17 0
171 -143 -19 0
197 27 221 0
72 139 -208 0
-63 -26 120 0
61 29 14 0
-222 73 -157 0
16 -58 69 0
12 -144 25 0
-31 68 88 0
240 -58 -61 0
91 -133 -182 0
-188 -117 145 0
-41 209 -74 0
-46 -96 134 0
-120 -234 -154 0
-52 -28 -188 0
170 -185 -92 0
-70 -75 -207 0
-192 -108 103 0
-240 155 -207 0
22 32 -101 0
203 -24 149 0
24 -228 -122 0
-165 -241 4 0
-222 -134 215 0
-12 229 116 0
127 60 222 0
101 -75 79 0
221 165 29 0
207 202 19 0
198 -227 118 0
35 239 34 0
-185 151 41 0
170 -145 -32 0
-46 147 131 0
200 124 -25 0
94 -66 194 0
106 41 -83 0
150 13 104 0
183 -163 164 0
203 212 210 0
139 133 -48 0
-70 16 27 0
136 23 -59 0
-154 73 -168 0
-238 -120 89 0
-61 78 -74 0
-201 -165 -168 0
-1 33 -205 0
-160 -51 -220 0
-56 35 92 0
210 -193 -154 0
-221 -190 -217 0
51 131 -87 0
127 -227 129 0
-103 227 -239 0
125 -185 20 0
228 -42 29 0
56 218 -203 0
-188 -172 -234 0
45 65 -238 0
-99 90 218 0
-181 -177 150 0
-137 178 -157 0
-44 -117 -4 0
175 -10 -191 0
-61 103 -21 0
-113 158 -18 0
-174 38 -152 0
90 30 -204 0
141 -213 219 0
59 -103 151 0
234 132 -128 0
-158 -222 122 0
60 -143 -223 0
47 120 -80 0
-165 167 206 0
9 1 126 0
-39 -62 -170 0
-130 -129 187 0
-104 -197 232 0
-150 -121 25 0
19 -60 178 0
-136 -190 -177 0
-167 111 14 0
-179 -42 38 0
-10 -97 54 0
-131 108 129 0
232 193 63 0
-209 -44 -172 0
-172 -241 -20 0
-180 212 -90 0
53 201 4 0
144 106 -62 0
-133 62 105 0
-119 4 204 0
-162 95 -223 0
-49 222 -36 0
-210 33 134 0
13 139 -60 0
211 176 178 0
-161 -30 64 0
90 -69 -126 0
33 168 -186 0
-203 67 -88 0
153 27 -139 0
123 21 -234 0
57 224 -172 0
64 -205 -96 0
-20 -200 -67 0
-22 -46 -201 0
48 -181 29 0
205 -27 90 0
216 -143 69 0
184 241 -162 0
64 128 -49 0
78 154 212 0
233 -80 -52 0
21 200 134 0
-85 35 127 0
-120 48 84 0
-51 161 92 0
-82 -93 -2 0
175 212 -185 0
193 119 50 0
163 -94 128 0
-136 137 -155 0
-180 -125 81 0
75 165 -170 0
140 -28 222 0
12 -129 -117 0
13 -147 -12 0
-36 112 -228 0
49 238 37 0
-125 -150 30 0
188 -82 79 0
8 -80 -42 0
-4 113 106 0
121 157 38 0
-201 -30 -142 0
31 101 45 0
126 72 171 0
-14 42 155 0
-33 59 -200 0
-92 41 161 0
85 -95 36 0
-176 193 138 0
134 -11 -133 0
38 -83 -177 0
-239 190 -178 0
38 -203 -69 0
106 214 201 0
65 -18 -176 0
12 141 -116 0
176 228 -30 0
-52 -152 164 0
9 52 139 0
83 228 -181 0
-12 -57 217 0
172 204 -161 0
88 191 205 0
13 115 23 0
-173 -99 24 0
-123 125 173 0
-141 -66 117 0
-94 89 195 0
117 -49 -60 0
-69 -169 233 0
-222 -139 -175 0
-43 23 225 0
209 -95 -142 0
-237 146 -48 0
-185 -21 -25 0
-50 -42 31 0
38 52 29 0
-6 171 -42 0
-61 -232 -66 0
-166 -98 -197 0
-72 167 -133 0
123 -92 -121 0
-63 -214 -148 0
-4 -79 80 0
115 215 -142 0
156 205 222 0
145 218 210 0
187 -227 22 0
-194 -81 -90 0
-107 -121 47 0
34 138 -12 0
-171 -174 142 0
166 -206 -83 0
186 124 -66 0
238 -151 -202 0
-29 147 73 0
-191 56 -145 0
47 -92 50 0
196 35 -113 0
106 -78 81 0
217 169 80 0
-236 -125 -239 0
-137 129 -60 0
152 62 208 0
92 -72 -48 0
230 61 -37 0
-70 107 210 0
175 -22 -237 0
86 -212 -142 0
44 -235 -214 0
-226 -206 -71 0
179 -84 3 0
145 80 134 0
2 72 25 0
199 186 11 0
-140 -123 163 0
234 3 -8 0
42 235 -127 0
206 -212 -216 0
-57 232 239 0
34 210 201 0
-94 208 -141 0
-224 126 -112 0
125 -38 201 0
-8 188 -189 0
-15 205 -169 0
-132 -5 -161 0
-18 47 -74 0
-95 35 -28 0
