c Random 3-SAT instance at phase transition
c vars=211 clauses=900 ratio=4.267 seed=3
p cnf 211 900
137 21 75 0
-33 86 85 0
-204 -111 116 0
114 130 -126 0
-133 189 -27 0
161 -165 145 0
191 -197 -170 0
200 33 51 0
-155 -142 -30 0
114 -145 -194 0
200 -196 144 0
-55 57 -186 0
-69 -77 159 0
-197 -180 142 0
173 206 169 0
-90 -82 88 0
-127 156 128 0
-90 185 -33 0
194 -91 -86 0
-182 166 -21 0
-85 13 210 0
71 138 -123 0
-195 -105 -108 0
-166 135 -23 0
99 86 138 0
-203 -48 160 0
-100 178 208 0
-35 172 167 0
191 160 -182 0
-14 102 -185 0
39 -169 -47 0
-135 -72 -64 0
-165 110 -46 0
123 -1 -182 0
-59 -150 37 0
61 -16 35 0
98 13 188 0
-60 124 -12 0
185 -116 36 0
76 197 -145 0
-63 -188 61 0
-65 -61 -99 0
170 -84 181 0
-63 -139 99 0
-176 62 -97 0
-176 -167 162 0
-1 42 57 0
-83 -133 203 0
181 117 201 0
-179 -19 -115 0
-117 116 -202 0
25 158 211 0
183 134 16 0
-107 -84 148 0
-10 25 -77 0
193 109 -15 0
-85 -129 185 0
38 175 45 0
30 48 165 0
-71 -163 207 0
62 -77 -63 0
-79 -129 57 0
101 40 189 0
87 131 197 0
209 211 163 0
-118 -15 -16 0
-28 -4 46 0
91 -83 128 0
-102 15 145 0
44 -173 72 0
122 47 164 0
-187 -173 -43 0
-4 153 -124 0
-82 -61 51 0
-199 53 10 0
-60 19 189 0
63 88 26 0
29 32 204 0
-80 -97 -102 0
34 27 2 0
28 153 -27 0
115 -68 -40 0
-50 -172 34 0
6 -138 -175 0
-44 -108 -49 0
-142 69 43 0
-33 161 -15 0
121 -31 -72 0
174 -209 -147 0
48 192 154 0
178 -167 45 0
131 188 64 0
-164 39 -96 0
4 -154 85 0
2 5 49 0
-3 206 -133 0
10 28 -29 0
44 -197 211 0
41 138 -113 0
-36 -170 -163 0
59 -50 203 0
107 171 78 0
5 106 149 0
-149 49 -161 0
-29 148 174 0
-78 202 -122 0
98 -149 129 0
-100 143 8 0
-157 -5 74 0
21 185 -126 0
-178 -50 -183 0
33 -184 75 0
-135 52 -204 0
-151 -2 -73 0
181 93 -102 0
38 -155 78 0
-31 -108 -189 0
174 -159 184 0
-13 194 -146 0
190 -201 26 0
-191 -124 -63 0
156 6 194 0
111 14 37 0
-55 141 -156 0
37 -26 141 0
-162 126 105 0
-152 163 123 0
-174 -66 17 0
-82 186 21 0
146 -210 -129 0
203 -176 206 0
141 -64 -165 0
-15 -7 -57 0
-76 4 52 0
168 75 74 0
4 -184 165 0
-109 -155 -28 0
-130 -120 117 0
51 17 -107 0
131 -22 -164 0
-144 115 -37 0
72 76 112 0
-106 -155 -35 0
-124 198 -153 0
-8 -3 94 0
-81 120 -125 0
78 -62 24 0
166 -170 28 0
55 -116 174 0
-170 17 -207 0
-30 -77 -209 0
34 -87 41 0
-76 197 -106 0
131 -102 202 0
206 -208 143 0
-129 -68 114 0
-96 151 162 0
-58 -23 163 0
73 96 -35 0
201 60 173 0
135 -188 -92 0
-56 -75 -59 0
54 58 9 0
59 16 -155 0
-73 -132 -206 0
-157 -108 -34 0
-38 181 139 0
95 -49 197 0
-164 42 -109 0
-50 110 37 0
-208 -54 183 0
-100 -194 -139 0
38 -101 -19 0
-162 -52 106 0
-151 -73 -141 0
203 -71 -8 0
87 129 63 0
-168 -182 -96 0
121 -22 8 0
-127 -154 34 0
176 -59 211 0
-63 -209 -184 0
-95 167 -97 0
-94 -65 136 0
-171 -193 -191 0
196 46 -53 0
-111 29 189 0
130 -118 101 0
-102 -132 205 0
-149 202 -115 0
75 -72 -187 0
-158 -23 -86 0
-53 -115 -193 0
-89 187 202 0
209 8 -166 0
188 16 99 0
-194 46 207 0
113 -54 -118 0
165 -205 -189 0
72 -57 159 0
-56 -172 211 0
95 -97 4 0
-76 14 183 0
73 130 96 0
-160 17 -2 0
44 129 -107 0
-209 -138 109 0
-204 194 -148 0
-128 165 -25 0
153 -6 191 0
-136 -140 -190 0
-85 206 154 0
71 194 -206 0
-107 -49 206 0
-57 -135 65 0
-155 83 -182 0
-103 34 -44 0
-76 -190 178 0
-35 -137 2 0
157 116 182 0
-100 -64 -174 0
11 -192 195 0
2 154 102 0
-205 88 -140 0
59 206 58 0
180 -90 -195 0
57 -167 156 0
86 -177 -166 0
-118 -34 205 0
-160 177 -27 0
-9 -80 -206 0
148 -117 -62 0
-74 -22 146 0
96 10 158 0
203 48 -92 0
192 -19 -165 0
191 155 -205 0
110 -156 129 0
-33 -86 160 0
-23 167 1 0
19 -137 -88 0
-6 -201 205 0
21 138 168 0
199 74 -138 0
-150 99 191 0
-157 -195 132 0
198 8 -196 0
11 90 167 0
-41 99 -158 0
197 -62 -52 0
-83 -134 135 0
-92 77 28 0
-62 67 19 0
-97 -115 83 0
-45 204 -40 0
203 33 166 0
54 18 152 0
198 105 -107 0
-178 -186 50 0
100 -12 27 0
-101 158 -167 0
46 174 -198 0
-109 -4 159 0
18 42 -145 0
-9 -171 -88 0
172 -87 -56 0
63 -99 -152 0
179 -31 -19 0
22 66 -38 0
-44 138 184 0
-84 -61 -133 0
-176 40 -166 0
-187 -152 -197 0
64 -31 140 0
29 -208 120 0
-55 90 -151 0
167 -180 -156 0
65 111 79 0
87 4 65 0
-76 187 -14 0
-88 -103 -187 0
89 -159 191 0
-30 -140 55 0
-30 47 -145 0
210 105 -31 0
-63 20 199 0
-183 176 -81 0
-210 76 -207 0
-166 22 36 0
136 111 100 0
-106 -102 15 0
-26 128 -83 0
185 -211 27 0
8 191 68 0
-6 190 -11 0
199 -97 -195 0
207 5 54 0
-196 192 48 0
51 165 -106 0
165 204 72 0
97 -27 10 0
207 154 -173 0
-58 158 31 0
-190 81 200 0
186 66 -16 0
-176 168 116 0
156 -183 -125 0
145 80 -190 0
129 -115 -46 0
202 172 -115 0
-147 110 48 0
-28 -147 25 0
207 -172 64 0
129 -135 -179 0
-70 75 108 0
-93 -9 196 0
-22 98 39 0
-118 62 -160 0
101 99 157 0
-2 -159 -108 0
-185 90 -208 0
126 -191 -38 0
-5 -59 -51 0
-105 -17 67 0
-146 -201 188 0
208 -57 46 0
172 156 -53 0
-137 -103 -59 0
-36 -66 118 0
57 133 72 0
137 117 140 0
33 81 -93 0
-70 -12 171 0
-52 -71 -72 0
40 -206 174 0
-90 -128 -170 0
-38 74 71 0
120 5 -200 0
108 -175 206 0
-68 12 79 0
204 -55 99 0
195 182 173 0
172 81 -155 0
-35 201 -92 0
-197 -71 74 0
-179 -77 100 0
-81 125 209 0
195 -26 93 0
176 63 3 0
156 -157 -32 0
-141 -169 -44 0
191 -185 -210 0
-136 124 -47 0
-107 138 -194 0
-192 -106 2 0
207 62 -120 0
-200 -195 -143 0
30 -124 158 0
146 211 -206 0
114 -55 31 0
-203 95 -199 0
-82 111 -174 0
-76 -39 -17 0
-46 -163 -180 0
-60 -98 -117 0
57 -105 151 0
-85 77 -176 0
154 159 124 0
165 -23 91 0
200 -105 110 0
-172 -87 118 0
-153 -20 202 0
-145 132 -79 0
-197 -31 -93 0
-25 -167 6 0
201 4 117 0
107 6 -91 0
127 104 -6 0
69 94 202 0
202 147 -133 0
70 129 52 0
150 174 -123 0
188 41 111 0
156 27 -157 0
-198 187 7 0
112 201 128 0
-96 156 103 0
-54 83 103 0
-98 205 189 0
-78 -79 -42 0
-53 62 -151 0
181 172 131 0
79 142 128 0
-58 -198 65 0
164 -154 -135 0
54 -167 -135 0
25 -106 -90 0
-167 -55 32 0
56 119 -206 0
-199 187 -9 0
104 200 170 0
-108 35 174 0
-42 -146 66 0
2 28 -17 0
201 -105 199 0
49 -8 20 0
13 -160 47 0
5 -206 -110 0
115 -32 -29 0
170 -141 122 0
-7 65 177 0
-156 37 -108 0
37 68 -54 0
-211 -67 132 0
-195 -54 148 0
128 -154 -75 0
-1 -97 127 0
178 -128 101 0
-110 63 -104 0
126 -75 -56 0
185 -95 25 0
-111 -125 -24 0
-190 -28 2 0
-130 -112 32 0
191 -129 -111 0
48 180 -64 0
19 -111 191 0
147 -206 174 0
91 195 -25 0
86 -112 -98 0
-153 103 -157 0
-69 152 75 0
73 -150 -104 0
46 12 -141 0
-42 -13 88 0
125 154 160 0
98 90 -192 0
-160 92 31 0
149 -14 38 0
175 -184 32 0
199 49 208 0
-178 -174 51 0
-128 -33 -30 0
148 64 -60 0
-89 95 -28 0
-66 173 60 0
-139 -56 127 0
-74 59 -191 0
-137 72 -56 0
24 -72 -182 0
147 93 179 0
23 159 38 0
157 59 72 0
-62 73 36 0
136 -32 -15 0
152 108 47 0
68 -129 -211 0
-68 176 -158 0
-82 -158 -104 0
-152 -6 -24 0
167 -3 126 0
-161 -105 91 0
111 -172 80 0
-34 159 167 0
154 -39 -146 0
-44 31 117 0
69 38 -87 0
-105 -55 -99 0
15 -19 44 0
-143 57 181 0
-79 6 -125 0
108 -166 44 0
-197 66 53 0
-166 -89 162 0
2 -14 -69 0
92 168 -189 0
-56 127 -167 0
-144 5 -171 0
-79 -124 -193 0
134 -141 -26 0
82 -127 -21 0
186 110 111 0
208 133 -200 0
15 -75 122 0
-175 -43 138 0
-102 131 -108 0
42 30 -59 0
120 -135 -15 0
-195 -52 -63 0
-179 29 9 0
-93 -7 166 0
-44 117 -176 0
-65 -116 -66 0
-24 -55 14 0
34 207 -133 0
55 -170 202 0
-3 114 -62 0
-78 -104 -53 0
103 79 75 0
78 -68 134 0
172 137 -59 0
190 14 -15 0
150 -136 210 0
119 92 -166 0
-91 -27 -17 0
-180 41 106 0
14 -166 -4 0
41 -10 50 0
-3 140 -104 0
-48 -192 -15 0
12 14 -207 0
-78 -35 23 0
-16 -113 -23 0
186 135 190 0
-22 101 86 0
180 47 97 0
13 -170 119 0
-144 -10 157 0
-12 -43 136 0
-161 -69 -81 0
102 -161 120 0
-169 147 135 0
24 60 -109 0
-171 110 55 0
-209 39 91 0
68 -190 156 0
202 7 -120 0
2 -31 140 0
115 149 194 0
3 -72 -117 0
80 117 165 0
-187 -95 -173 0
-201 -70 193 0
-171 186 204 0
188 79 205 0
-199 168 198 0
132 24 -93 0
-160 42 -34 0
62 121 -84 0
-24 -71 -7 0
-67 62 -111 0
-204 -90 143 0
-12 -114 -134 0
-102 136 -108 0
-9 -152 -197 0
116 -75 -146 0
-32 110 -154 0
-6 -118 -77 0
137 47 86 0
147 157 -14 0
-191 116 18 0
-107 -98 -68 0
-142 188 -169 0
-32 -130 -88 0
28 83 -18 0
-128 136 107 0
-103 85 168 0
11 -88 -171 0
-78 -161 130 0
112 -171 -133 0
-187 -127 -19 0
-101 211 210 0
8 -96 -152 0
72 202 -156 0
-105 158 203 0
121 -104 127 0
-139 130 11 0
-4 41 82 0
3 -34 158 0
-53 -16 183 0
-73 -138 -99 0
-72 74 90 0
90 -39 -104 0
51 -195 112 0
72 52 170 0
130 -55 -50 0
148 -143 108 0
77 3 132 0
193 -145 -116 0
-209 211 45 0
-198 -54 14 0
-131 51 -178 0
97 -37 -147 0
136 -158 -19 0
64 -187 -149 0
210 -41 -153 0
-201 202 53 0
34 -18 83 0
210 -190 -62 0
41 73 -117 0
-45 -48 61 0
157 183 -110 0
-21 -33 66 0
10 -81 198 0
23 -104 -119 0
111 72 172 0
37 -32 -68 0
159 -18 207 0
-148 190 -125 0
123 -108 -185 0
-102 91 -84 0
-204 93 -35 0
-182 62 -136 0
-99 -149 -156 0
118 53 11 0
189 -8 123 0
-128 -208 -55 0
82 108 -47 0
100 -8 -77 0
112 13 48 0
89 -44 66 0
-67 -203 12 0
158 16 -28 0
91 27 -57 0
99 -60 192 0
52 183 188 0
166 86 -149 0
-41 -90 -197 0
-121 -56 -99 0
46 163 -119 0
38 32 -34 0
-10 -115 55 0
-96 -170 130 0
106 17 -128 0
-154 132 -104 0
-165 -205 157 0
121 176 -6 0
208 27 199 0
-33 81 36 0
90 86 -116 0
-94 -144 172 0
-22 37 14 0
-138 20 -110 0
193 -145 -133 0
-105 -110 -44 0
-60 -154 -126 0
-94 -176 -103 0
7 -154 -78 0
-142 84 61 0
167 194 -119 0
-33 -159 -136 0
-97 -28 12 0
-87 -19 -29 0
105 45 -3 0
142 -203 195 0
46 18 -142 0
64 144 154 0
-207 178 138 0
-131 -42 69 0
-176 191 61 0
79 -197 -117 0
181 38 179 0
18 25 120 0
17 -117 -170 0
-204 -23 187 0
20 -51 133 0
107 -105 81 0
203 -112 -81 0
167 -195 -198 0
-210 -102 -207 0
130 -1 5 0
-191 -77 -150 0
-207 164 88 0
90 96 -167 0
132 121 138 0
-45 99 -51 0
98 -48 27 0
120 -64 -113 0
-157 -2 -197 0
72 -50 190 0
-57 58 -124 0
-78 27 -201 0
72 -114 94 0
206 -22 -73 0
4 -37 119 0
-21 206 -115 0
-165 -32 140 0
-84 -184 107 0
23 -21 -77 0
-4 -67 44 0
129 62 -127 0
-89 -202 53 0
134 200 -94 0
10 -24 -130 0
116 62 -180 0
-62 -128 184 0
-131 -98 18 0
178 54 57 0
160 166 -32 0
-28 96 171 0
62 -128 -70 0
-5 -4 182 0
47 75 -124 0
4 120 -73 0
97 -152 -163 0
-69 -51 -58 0
114 12 -140 0
209 -138 203 0
211 136 120 0
-125 -101 -2 0
-145 163 34 0
-110 -88 -135 0
-80 127 -72 0
-59 -142 -178 0
-181 -100 48 0
5 -47 152 0
12 47 -89 0
-177 1 40 0
83 41 100 0
117 192 114 0
-102 173 6 0
198 135 10 0
-61 168 140 0
197 157 186 0
67 -186 206 0
-12 129 191 0
66 179 142 0
-109 -64 112 0
204 149 138 0
-166 165 132 0
147 12 136 0
-86 75 124 0
22 186 -197 0
-172 -157 180 0
86 168 40 0
62 169 30 0
210 -211 155 0
-11 159 195 0
-191 -136 -129 0
90 130 126 0
-195 71 167 0
-167 -49 72 0
123 137 -55 0
-99 18 89 0
-156 185 177 0
149 -160 -112 0
11 153 193 0
-21 -108 -94 0
116 -20 -204 0
181 106 -173 0
43 97 -162 0
35 164 -126 0
-101 -76 69 0
154 -151 165 0
67 -10 -159 0
-13 -211 176 0
81 -98 175 0
-110 -69 121 0
159 -16 -206 0
151 46 118 0
-91 -58 -59 0
-23 -32 -119 0
79 68 138 0
-94 115 -85 0
-95 118 33 0
42 -163 36 0
200 -141 -115 0
-109 24 -8 0
166 -32 115 0
-164 -43 116 0
139 88 207 0
53 -192 -210 0
20 80 200 0
-132 -58 -207 0
-82 -28 -64 0
-115 -14 -178 0
41 150 -128 0
-140 -71 23 0
-90 -32 54 0
-173 194 -189 0
151 -62 -61 0
178 112 188 0
176 -181 -69 0
-29 63 106 0
-100 -165 13 0
166 181 -205 0
-126 -164 178 0
-87 -15 -45 0
-13 -101 210 0
126 79 -199 0
92 14 -12 0
-52 99 167 0
-19 -166 -105 0
-45 -186 -78 0
63 175 -200 0
-87 202 -136 0
209 123 -35 0
152 -175 -39 0
-50 -9 7 0
-32 204 162 0
-96 181 18 0
-89 -1 -178 0
153 87 184 0
-13 116 75 0
-197 -131 -186 0
-130 -177 175 0
118 -175 -148 0
-16 -138 10 0
-199 109 166 0
140 7 183 0
100 164 72 0
-8 -190 56 0
93 -125 -104 0
146 -8 -175 0
-202 160 -200 0
-100 122 151 0
-69 118 6 0
118 -145 -189 0
-62 188 111 0
-107 -137 -37 0
66 88 -189 0
47 -117 134 0
24 32 -103 0
-23 -89 -211 0
10 4 166 0
45 -87 -158 0
203 -123 -116 0
36 92 -194 0
168 201 177 0
63 17 169 0
-127 -54 -166 0
-186 -133 11 0
-126 -40 -203 0
109 17 -107 0
50 95 -42 0
97 136 -133 0
45 -142 -187 0
11 -65 20 0
-111 -47 -109 0
108 -131 -122 0
26 -69 101 0
73 23 171 0
-144 -58 89 0
124 -29 182 0
170 118 116 0
-27 -117 -88 0
-133 -73 -187 0
60 -202 -122 0
-109 208 113 0
170 33 175 0
-54 39 -63 0
76 206 -86 0
110 117 -186 0
152 29 -158 0
-46 -129 -90 0
36 -143 62 0
55 69 -143 0
171 -114 -152 0
-148 -124 -207 0
113 139 -133 0
58 -123 179 0
-166 11 12 0
69 70 75 0
128 100 -111 0
-200 80 13 0
-131 -113 -33 0
-78 94 -123 0
97 -111 98 0
98 -40 116 0
25 -94 65 0
16 211 -44 0
50 -126 -98 0
60 35 117 0
-18 -185 -60 0
207 186 -7 0
-16 138 25 0
-181 -196 -177 0
83 -79 184 0
-43 10 172 0
-146 135 52 0
203 47 -166 0
-41 162 -9 0
149 178 206 0
109 -75 169 0
131 -121 -56 0
-92 194 10 0
-152 54 -177 0
56 122 -136 0
23 -167 -46 0
-160 209 80 0
-193 98 62 0
-158 -36 -87 0
-97 -67 82 0
-143 41 60 0
-167 -84 -34 0
-21 -91 -34 0
164 -193 -52 0
-70 155 2 0
-55 -154 46 0
174 -125 200 0
209 54 202 0
180 -38 44 0
-174 -134 -89 0
-174 52 142 0
-195 87 -37 0
151 208 -3 0
-188 -82 1 0
31 -203 -39 0
-40 103 -57 0
-164 115 -177 0
