c Random 3-SAT instance at phase transition
c vars=265 clauses=1131 ratio=4.267 seed=2
p cnf 265 1131
22 73 123 0
136 262 -211 0
155 174 -167 0
-33 -42 -6 0
-136 164 -249 0
-231 215 -233 0
-170 123 246 0
-238 227 177 0
-254 -180 -46 0
-189 256 -179 0
-188 37 183 0
261 166 -239 0
-209 66 204 0
-56 -155 -247 0
-6 -243 -169 0
-2 -35 -198 0
-253 -188 -91 0
15 -37 212 0
219 -250 -189 0
246 -172 -71 0
-52 -111 51 0
-200 141 234 0
231 -240 1 0
-178 -100 186 0
244 -229 -24 0
-15 189 55 0
-154 -242 159 0
29 142 -198 0
-173 123 -20 0
-170 92 -137 0
139 28 -98 0
133 238 -116 0
-13 72 -5 0
-191 47 229 0
165 249 -148 0
78 -5 52 0
59 -137 240 0
-235 -34 5 0
139 -148 55 0
-88 149 -166 0
-226 -194 234 0
-235 222 234 0
47 -40 -246 0
-153 62 -166 0
236 -22 -139 0
-174 -6 -244 0
42 -246 -228 0
-243 -169 -244 0
-204 253 -14 0
-192 167 181 0
192 263 33 0
-30 60 74 0
-30 82 76 0
138 200 -65 0
225 -18 224 0
18 131 -45 0
-83 -175 131 0
-54 90 218 0
54 163 88 0
157 -37 -195 0
201 -246 -28 0
206 253 106 0
152 -174 9 0
-117 186 -71 0
-229 238 35 0
80 228 5 0
5 -49 89 0
97 264 -262 0
27 -234 8 0
-89 -33 52 0
-42 163 -247 0
-91 -58 52 0
-71 194 113 0
-95 237 -238 0
-146 30 -67 0
204 161 -237 0
-39 -121 -17 0
234 182 -162 0
75 49 70 0
103 89 -20 0
204 83 128 0
124 -259 234 0
218 72 155 0
-170 -38 -179 0
-139 -125 219 0
-15 -106 -23 0
35 -112 -36 0
-146 -144 131 0
-84 -251 142 0
-234 252 -52 0
-13 200 -88 0
147 -142 215 0
21 -116 -164 0
-84 -159 -26 0
-131 59 226 0
155 45 -139 0
-218 135 227 0
109 -182 -151 0
51 -224 -161 0
83 36 136 0
239 -221 -150 0
178 -129 209 0
-44 71 -125 0
-33 -12 30 0
26 83 -148 0
-146 -109 -6 0
-228 265 18 0
-8 -1 -116 0
-65 182 -33 0
-264 -139 138 0
-137 39 24 0
199 32 -86 0
101 -1 -61 0
-155 116 99 0
86 -4 -241 0
-124 -180 89 0
4 26 -7 0
-238 -53 20 0
-12 16 -154 0
-225 -206 -97 0
41 54 65 0
26 -63 -108 0
-211 -200 -216 0
-61 251 -71 0
182 6 91 0
-183 122 -248 0
153 -75 -2 0
64 -110 -186 0
-186 184 261 0
142 -3 93 0
201 153 101 0
-66 15 -96 0
-49 -82 157 0
-118 226 -140 0
-60 -46 -144 0
139 102 154 0
-191 -58 162 0
4 55 -242 0
-26 -225 111 0
-42 -122 105 0
-84 -210 205 0
-137 -91 -179 0
-186 -45 -177 0
66 -98 -56 0
151 113 188 0
194 149 175 0
225 91 253 0
-86 138 -221 0
250 177 73 0
-53 -58 -69 0
255 -124 166 0
-18 -189 -192 0
1 79 114 0
62 -87 -30 0
264 -136 -86 0
-68 -259 152 0
-206 221 -105 0
-97 138 2 0
-179 -256 -4 0
203 -150 -176 0
174 145 -151 0
116 139 -112 0
-109 -184 1 0
186 233 -92 0
-70 174 -39 0
-141 7 -167 0
-89 -151 179 0
-264 169 -193 0
49 -138 -42 0
-42 -5 232 0
28 -202 101 0
105 247 -235 0
-188 -78 146 0
-121 -193 -50 0
69 -98 72 0
-248 -230 -57 0
-54 146 -187 0
-198 257 -255 0
-125 219 107 0
168 -242 -202 0
197 -175 -208 0
-44 -114 -201 0
-158 -188 48 0
57 -79 -80 0
-262 173 -193 0
198 211 -15 0
104 -14 -252 0
73 -17 193 0
-56 237 24 0
208 -236 -82 0
-98 -156 157 0
-240 243 -72 0
10 253 -202 0
-222 -233 185 0
234 112 -30 0
-63 -159 102 0
10 83 240 0
154 12 86 0
-142 -107 -83 0
-143 189 -259 0
-80 -2 231 0
-255 213 30 0
26 170 -147 0
227 187 2 0
193 -89 199 0
-78 -248 -120 0
5 60 -255 0
18 -118 -253 0
264 233 -136 0
158 134 198 0
41 105 189 0
179 -115 -208 0
-166 -41 -24 0
104 93 94 0
-193 -46 265 0
13 42 -164 0
-170 -107 -1 0
75 -168 4 0
-67 43 -189 0
185 215 21 0
195 -49 235 0
-205 -241 1 0
-174 143 -132 0
128 26 131 0
23 85 -72 0
240 -186 107 0
205 -220 151 0
113 -52 -235 0
186 -10 -106 0
-122 196 246 0
124 42 -8 0
173 129 -147 0
59 -118 -35 0
186 128 -241 0
106 216 -24 0
-14 48 231 0
-236 1 60 0
-83 210 41 0
-100 190 -158 0
30 64 80 0
189 -110 210 0
-9 7 243 0
-253 -217 -147 0
106 -197 -168 0
-161 198 236 0
-159 93 -68 0
253 3 256 0
-244 66 125 0
183 144 -34 0
-78 -75 94 0
11 163 121 0
199 -234 -226 0
123 33 -125 0
-153 -51 -228 0
96 103 -217 0
92 12 -35 0
178 -8 4 0
105 104 -248 0
119 38 -125 0
-123 169 14 0
-227 154 123 0
150 -1 -50 0
94 73 49 0
161 -118 68 0
91 -251 189 0
236 234 -195 0
-105 -165 94 0
-93 -21 -27 0
36 -74 -119 0
-29 -24 155 0
53 -231 -55 0
-194 -243 216 0
-192 261 -12 0
-242 -220 141 0
197 -57 -130 0
207 -123 234 0
77 -158 107 0
166 196 -225 0
-4 -91 -117 0
101 -163 155 0
-189 -32 78 0
260 113 90 0
-261 -138 -3 0
171 -92 -133 0
236 -249 157 0
-77 -11 40 0
-12 -254 70 0
141 159 61 0
-160 126 -38 0
13 -28 261 0
78 34 121 0
252 -63 146 0
-227 223 258 0
45 169 186 0
155 -13 -110 0
258 238 -108 0
-55 -245 -119 0
120 94 -42 0
204 10 -179 0
117 -63 11 0
20 -120 109 0
-105 158 183 0
105 -186 131 0
146 -248 -86 0
-246 233 -158 0
-133 36 166 0
-71 16 133 0
177 29 -111 0
228 172 -186 0
201 -158 -65 0
89 -142 -114 0
-193 -134 -199 0
-99 -180 -214 0
-220 206 32 0
-212 129 -237 0
-134 -243 184 0
247 -68 -144 0
-192 -121 188 0
-235 8 202 0
225 -42 -116 0
263 259 -142 0
-170 187 -236 0
-59 250 61 0
-242 -117 217 0
101 81 214 0
-34 -30 -65 0
231 -176 -27 0
-128 -31 -244 0
-250 -179 210 0
-254 16 -101 0
-45 30 -109 0
-217 191 127 0
37 -111 -145 0
-256 239 251 0
-164 -189 -14 0
-16 211 -24 0
-7 63 190 0
59 24 149 0
154 -246 -150 0
-52 115 160 0
92 -86 124 0
25 131 29 0
-183 215 258 0
-126 241 7 0
208 -167 217 0
-137 77 6 0
-2 -171 220 0
-149 -29 261 0
210 -231 138 0
-23 -102 -233 0
-100 232 12 0
176 -73 -62 0
67 -51 2 0
-183 -1 -205 0
17 -179 -13 0
140 253 -262 0
200 57 224 0
-70 155 -59 0
-231 108 95 0
-234 -196 166 0
-2 31 -107 0
-191 -62 118 0
106 51 219 0
48 -140 202 0
-133 255 41 0
166 93 57 0
-85 -247 -210 0
-6 -148 36 0
-215 149 -46 0
-113 162 -195 0
-102 -206 -57 0
35 134 -100 0
251 2 -43 0
-184 -130 -43 0
119 250 -121 0
-73 -156 -227 0
38 176 151 0
-157 19 78 0
43 34 99 0
-195 -218 180 0
-243 -51 223 0
-241 -168 35 0
-75 -128 -46 0
5 219 -17 0
-101 -204 84 0
246 165 -74 0
-216 137 -16 0
-242 158 -160 0
166 -240 -162 0
20 41 222 0
-129 38 -32 0
34 201 179 0
-23 -200 -227 0
84 -236 -15 0
60 -53 122 0
157 54 6 0
238 -34 -126 0
92 -198 -103 0
-64 263 213 0
260 -116 163 0
-128 -92 97 0
72 145 123 0
-250 228 -120 0
-136 -73 -173 0
203 -142 -87 0
-167 83 65 0
-178 91 -13 0
124 24 75 0
-103 224 184 0
58 43 -84 0
-20 28 217 0
-197 170 -225 0
100 253 -257 0
145 -134 -139 0
-160 175 5 0
254 173 150 0
-11 196 103 0
-205 160 40 0
-58 86 4 0
264 -27 -202 0
122 31 123 0
-237 248 -214 0
-17 15 169 0
173 -238 247 0
-63 242 -244 0
249 209 1 0
-45 217 95 0
-49 -9 -86 0
167 233 -25 0
-59 -260 -180 0
-97 -180 -80 0
-245 -185 221 0
-220 -93 212 0
84 -102 74 0
155 53 -6 0
-58 202 -112 0
124 -150 -117 0
251 -67 -130 0
-233 122 -35 0
260 114 -32 0
64 -141 -208 0
122 -33 72 0
158 96 -61 0
-52 -260 129 0
103 -238 -3 0
-146 54 161 0
187 23 -155 0
-113 -114 -157 0
-196 244 25 0
182 252 176 0
-116 -215 -134 0
-117 179 -155 0
149 245 106 0
-14 -22 26 0
243 148 192 0
-45 -106 -101 0
195 184 -188 0
-76 205 -132 0
136 227 -11 0
7 87 226 0
23 163 -183 0
21 -126 84 0
169 -135 -93 0
-126 -61 -139 0
168 -126 234 0
-180 40 237 0
-53 -265 56 0
-232 67 92 0
22 -146 41 0
44 -226 -20 0
153 -115 45 0
222 -181 219 0
-87 -128 -261 0
-62 -171 253 0
-51 -201 26 0
2 241 108 0
-142 -177 5 0
-250 200 -242 0
-187 -88 -140 0
132 22 206 0
138 118 114 0
-223 -240 15 0
-228 182 223 0
22 -103 244 0
-241 209 168 0
-259 238 166 0
158 -50 -23 0
125 -164 -178 0
128 -60 -163 0
-109 192 -262 0
92 -261 -245 0
22 117 -76 0
80 16 192 0
-162 -153 -50 0
263 -184 -253 0
236 -185 35 0
-140 235 109 0
107 142 -226 0
72 120 145 0
-119 -9 -123 0
26 -13 147 0
71 258 77 0
-67 69 48 0
169 -219 148 0
-26 187 135 0
97 14 -4 0
-200 -38 -17 0
-236 61 179 0
-4 94 -138 0
-132 -133 28 0
122 108 197 0
-90 -75 158 0
-202 236 -152 0
-36 259 7 0
93 176 -33 0
39 93 -1 0
-94 -8 -210 0
228 -230 -170 0
234 -105 -108 0
-221 -139 -141 0
63 193 -111 0
76 -48 155 0
188 193 201 0
74 170 -160 0
-9 104 91 0
-190 -170 112 0
51 -124 -162 0
24 -106 55 0
-210 80 249 0
217 -198 -180 0
-198 -245 -126 0
240 70 10 0
-184 -264 -156 0
172 68 231 0
-34 101 262 0
-142 203 -40 0
-108 -44 126 0
-9 100 -217 0
174 45 -253 0
-53 237 -171 0
-228 166 183 0
-237 98 -238 0
263 255 -172 0
50 125 -235 0
18 -227 -93 0
-254 88 70 0
-7 -143 246 0
179 171 -234 0
-51 -181 -66 0
-148 131 -55 0
171 225 -128 0
-79 -199 -59 0
-243 76 -41 0
29 146 259 0
-233 49 -214 0
-82 118 213 0
261 -35 27 0
55 -232 -174 0
65 -182 113 0
10 33 82 0
-52 231 110 0
-171 19 -155 0
-218 221 261 0
262 4 -102 0
-26 198 -125 0
-27 -12 243 0
-168 22 -186 0
-153 -57 229 0
-116 -170 50 0
-124 191 -39 0
67 -93 90 0
-231 -210 166 0
46 91 -14 0
-7 -47 -29 0
158 -119 101 0
-84 108 -235 0
82 231 -97 0
-189 79 -14 0
-164 -38 90 0
-41 -178 -199 0
260 -198 226 0
137 -44 -112 0
-204 -156 -241 0
-62 -154 -85 0
100 -245 85 0
98 -216 217 0
31 147 -155 0
-34 -137 -225 0
-53 -27 -249 0
111 28 -65 0
-35 -7 -69 0
-203 143 224 0
4 190 -136 0
254 -104 258 0
190 167 68 0
-160 7 191 0
158 257 87 0
-137 200 -253 0
-71 -167 15 0
153 -152 8 0
-89 211 -27 0
82 -115 102 0
-176 19 -134 0
237 257 95 0
92 193 38 0
-38 -184 205 0
247 40 -60 0
-241 29 172 0
188 -259 59 0
124 -191 159 0
-183 225 -218 0
233 11 134 0
172 118 -38 0
227 -145 -15 0
-236 -191 60 0
-227 -258 -52 0
-195 253 198 0
157 -212 -41 0
214 -238 76 0
162 -235 -206 0
37 12 -135 0
53 94 50 0
-22 38 -27 0
116 75 62 0
219 -6 108 0
61 -163 -18 0
-61 -78 -234 0
171 -105 -55 0
-26 -208 121 0
209 -257 -249 0
-239 -22 66 0
-92 168 -77 0
174 -81 211 0
-13 81 84 0
-213 209 -49 0
-180 47 -230 0
71 140 -52 0
-143 -128 225 0
210 7 215 0
32 -256 -167 0
-137 -42 -16 0
-87 27 -37 0
127 -236 -29 0
146 105 180 0
-80 -192 -15 0
-209 -199 -201 0
-131 60 -74 0
223 139 173 0
-161 192 27 0
145 263 163 0
-253 -223 91 0
138 -149 -45 0
242 69 -75 0
49 -16 -50 0
-179 -211 -70 0
-237 -58 -246 0
-75 -24 -91 0
-8 70 265 0
-167 162 -176 0
211 10 115 0
168 -175 -19 0
-165 185 -60 0
248 257 233 0
50 86 -218 0
-91 2 -102 0
-175 -182 -32 0
33 148 32 0
194 -19 100 0
-3 31 50 0
-79 9 -209 0
-151 4 173 0
133 -123 -7 0
-7 -185 -43 0
188 98 -172 0
262 81 5 0
-235 12 8 0
-217 -122 19 0
95 108 54 0
161 -102 -178 0
168 171 -189 0
116 -51 122 0
-112 -256 138 0
15 -63 17 0
-209 -19 -15 0
78 -252 33 0
-99 64 248 0
32 -6 -74 0
-54 97 111 0
-146 -205 -40 0
208 -42 -52 0
-259 20 -82 0
-147 247 -13 0
149 -165 15 0
-80 -210 -226 0
252 202 -66 0
105 123 134 0
-205 -28 -100 0
159 41 -117 0
-249 103 -149 0
-99 -202 -245 0
79 70 110 0
96 238 63 0
-94 80 -180 0
-85 56 -57 0
-247 57 -23 0
48 122 33 0
86 242 -67 0
8 -31 207 0
-204 -223 -104 0
61 -152 98 0
-180 196 145 0
67 -92 -4 0
-190 207 -224 0
159 -196 156 0
-88 262 165 0
195 -28 189 0
62 -206 25 0
-55 -209 226 0
-44 -250 -61 0
-255 258 147 0
-75 138 154 0
-74 -46 -100 0
-32 -74 195 0
59 -135 195 0
-252 -184 -91 0
38 17 -236 0
141 80 -167 0
-151 76 100 0
-75 200 146 0
171 175 -194 0
177 131 -86 0
-245 192 218 0
45 206 -30 0
-215 -167 -112 0
-205 -187 -239 0
191 -52 204 0
-256 109 -226 0
88 176 -222 0
97 233 -201 0
137 -142 -34 0
-79 -156 173 0
253 38 -261 0
120 -260 213 0
96 16 -161 0
-237 125 146 0
228 -57 43 0
236 188 -38 0
-136 -239 -197 0
-45 -259 -141 0
-65 -246 97 0
45 -33 -114 0
193 -118 -209 0
116 177 66 0
118 -201 9 0
-151 203 169 0
70 121 241 0
239 -32 -108 0
225 -175 219 0
76 -11 262 0
-96 -70 161 0
127 207 258 0
-89 183 -115 0
202 259 72 0
233 84 -48 0
174 71 249 0
86 37 66 0
3 139 160 0
-25 73 -198 0
103 -77 59 0
230 75 76 0
-67 -161 -31 0
-157 -81 -226 0
-263 -256 74 0
127 113 -95 0
-182 -161 -226 0
45 151 -31 0
-89 77 -87 0
237 -8 -36 0
-48 141 185 0
-204 -97 86 0
-25 -95 117 0
-203 240 -31 0
-53 -171 75 0
222 108 134 0
-165 -265 -120 0
-42 55 -76 0
203 -33 170 0
58 5 -259 0
108 234 145 0
-209 47 175 0
237 51 150 0
178 236 156 0
-187 149 179 0
-138 90 -208 0
11 -52 -145 0
-132 -48 142 0
-137 -2 107 0
-262 -126 -27 0
-227 -114 -24 0
220 11 205 0
177 86 230 0
95 205 -24 0
265 24 -190 0
-134 97 -116 0
63 -133 -32 0
-167 -22 9 0
-259 -125 28 0
-18 44 -63 0
196 218 206 0
-217 66 4 0
249 103 71 0
-101 -138 -123 0
-248 231 -235 0
86 245 30 0
130 -176 127 0
-32 -231 189 0
19 245 -48 0
236 129 225 0
19 -113 -210 0
252 -123 -58 0
-164 -84 80 0
119 -53 189 0
-42 257 -59 0
100 54 209 0
-31 -11 99 0
-14 196 -6 0
-81 -161 -49 0
-229 -134 207 0
-34 -129 -140 0
-170 -107 -146 0
-158 -239 64 0
218 145 67 0
-19 -169 202 0
206 152 14 0
-2 -249 135 0
41 85 -175 0
-7 -224 -166 0
-93 -221 -138 0
-100 15 9 0
98 210 118 0
116 186 224 0
-131 39 246 0
26 92 163 0
197 144 -102 0
34 -145 50 0
220 -62 -26 0
-166 -194 1 0
-66 -210 178 0
-232 186 -146 0
213 10 112 0
-195 92 -4 0
123 113 107 0
3 264 57 0
73 115 -214 0
-51 159 -48 0
-245 -160 -125 0
-149 185 91 0
224 -2 -96 0
-55 -81 116 0
-92 62 258 0
107 260 -77 0
70 234 146 0
-26 156 -258 0
27 196 24 0
-13 264 43 0
-13 232 -5 0
-81 -234 -63 0
153 -258 -133 0
100 -193 12 0
248 -93 17 0
-119 229 -222 0
123 -111 199 0
-60 233 189 0
-202 70 165 0
-57 -166 149 0
228 257 -232 0
121 54 110 0
8 -65 -167 0
-242 65 37 0
239 -220 -22 0
126 71 -80 0
85 48 121 0
9 -3 183 0
-117 264 147 0
101 -54 -149 0
-51 -168 -163 0
-215 -256 -64 0
-147 119 249 0
166 -213 -123 0
-2 -61 -186 0
-240 -209 228 0
-90 58 -221 0
79 -93 113 0
-118 -148 262 0
-25 -32 -216 0
-106 -145 -148 0
48 9 140 0
244 218 186 0
-89 -238 -237 0
-101 -185 -73 0
143 72 -206 0
-51 -104 -22 0
226 -59 -130 0
225 -265 -179 0
74 186 -82 0
-109 -204 215 0
157 52 -217 0
-226 -258 -152 0
158 44 -56 0
188 -263 39 0
145 -243 -1 0
139 59 -153 0
150 -16 239 0
34 198 -188 0
38 -163 204 0
-148 228 -63 0
138 33 239 0
-81 226 -86 0
-218 136 133 0
-240 -60 -202 0
-66 260 140 0
263 18 -125 0
-15 82 -69 0
-166 149 -175 0
-214 62 -264 0
188 -91 115 0
-237 -185 131 0
39 104 228 0
166 76 94 0
-26 181 65 0
99 187 -23 0
-140 -153 -233 0
-17 76 44 0
-126 261 -138 0
217 -62 48 0
-78 -67 -43 0
244 -46 150 0
-81 13 -186 0
-61 -264 259 0
-122 192 186 0
167 -177 -191 0
209 -17 -124 0
-118 -142 23 0
31 -198 242 0
156 -143 95 0
-144 -225 82 0
233 125 -124 0
245 -192 155 0
61 -204 73 0
-93 -252 133 0
80 -104 138 0
-236 94 -234 0
56 -186 123 0
229 12 -104 0
220 3 21 0
-68 -41 -82 0
193 -125 -216 0
-149 251 13 0
233 95 -168 0
16 -158 63 0
8 25 -17 0
71 234 29 0
-195 92 244 0
161 52 -132 0
187 258 81 0
-9 -139 251 0
79 -186 151 0
-67 -127 -154 0
194 238 -49 0
149 222 98 0
-62 111 -182 0
-245 -227 35 0
17 -19 -30 0
94 -19 -229 0
-121 134 175 0
142 79 69 0
-182 231 221 0
-62 72 224 0
22 178 124 0
86 -180 194 0
-142 -164 -136 0
77 -159 255 0
60 -199 194 0
-211 185 260 0
254 -265 11 0
-32 -162 120 0
198 181 -70 0
102 236 -162 0
187 93 261 0
102 259 192 0
-72 17 240 0
-232 229 170 0
237 161 -213 0
84 -40 73 0
-15 -127 65 0
104 110 -202 0
-251 -148 24 0
-157 263 228 0
85 223 -239 0
182 48 -4 0
-131 -124 219 0
58 219 206 0
-218 230 232 0
25 -196 -94 0
83 -60 -39 0
35 -37 177 0
-164 -192 -116 0
-80 -204 -19 0
-45 58 -167 0
13 153 239 0
-158 -185 -41 0
-19 172 -234 0
-248 202 85 0
-226 250 112 0
156 -191 -53 0
-175 162 -109 0
-264 -10 246 0
-111 238 35 0
-263 142 136 0
201 -107 176 0
229 -184 46 0
263 -231 -163 0
157 133 107 0
225 251 -10 0
-135 -30 -48 0
126 -97 102 0
-127 -155 136 0
-251 -214 35 0
171 140 -254 0
-205 -42 -164 0
-251 -103 86 0
171 -105 217 0
-108 -39 234 0
-155 -70 101 0
-63 231 -252 0
141 247 37 0
-116 -189 19 0
28 110 -49 0
102 -219 108 0
150 -76 -137 0
180 -99 -9 0
-172 -86 -6 0
236 74 258 0
-140 129 -234 0
212 -184 -139 0
-249 -65 -217 0
74 -91 -236 0
-189 57 -50 0
216 118 -127 0
-164 180 177 0
32 -84 -222 0
168 -144 -122 0
228 61 3 0
-137 -41 -177 0
-5 194 259 0
-117 -208 119 0
233 63 -53 0
235 -41 -96 0
-207 -94 173 0
88 -139 -91 0
124 91 114 0
-225 -103 -218 0
-54 -33 79 0
98 251 -12 0
-154 -165 10 0
-4 47 178 0
-196 -89 -64 0
40 216 -39 0
-223 238 154 0
-171 -100 252 0
-191 198 64 0
218 -151 -39 0
256 -203 71 0
101 -112 -16 0
69 50 67 0
161 235 95 0
35 -169 135 0
207 176 -206 0
-139 -174 -219 0
-69 -127 99 0
-45 158 -17 0
254 -194 50 0
-147 -169 233 0
-173 -172 154 0
202 -250 -28 0
36 101 -33 0
213 83 -152 0
82 -183 211 0
-31 43 86 0
204 -191 58 0
13 -199 85 0
-50 132 10 0
-75 90 238 0
178 121 -248 0
-109 102 139 0
99 -29 229 0
-14 -229 -70 0
-132 -53 95 0
246 -239 -85 0
76 53 102 0
-124 130 -225 0
22 135 140 0
-264 -89 97 0
236 -90 262 0
-94 235 26 0
-176 -202 -16 0
-152 61 -249 0
9 -166 -263 0
126 224 262 0
-168 264 180 0
-132 144 -202 0
-163 133 -26 0
-174 -39 6 0
250 160 -26 0
-100 -59 43 0
120 2 20 0
150 84 -239 0
-48 38 -111 0
258 29 -21 0
244 96 230 0
106 254 253 0
172 -55 -222 0
215 -202 145 0
-41 -182 -244 0
-7 -46 -232 0
-2 91 191 0
-180 -10 13 0
-49 77 24 0
243 -143 -125 0
86 -110 -197 0
-168 196 253 0
