c Random 3-SAT instance at phase transition
c vars=240 clauses=1024 ratio=4.267 seed=3
p cnf 240 1024
156 -23 -236 0
58 -37 98 0
-75 -128 -126 0
-199 38 130 0
-217 -233 78 0
-239 -60 -1 0
144 -5 -225 0
-120 86 -171 0
25 -139 52 0
-215 -217 -222 0
228 -103 -224 0
207 106 -209 0
233 160 100 0
-181 227 192 0
-204 -161 -13 0
-39 -197 234 0
67 -103 -93 0
-120 -144 177 0
-52 23 102 0
-63 -27 -209 0
-5 -91 202 0
-217 -238 78 0
238 133 -176 0
140 -132 48 0
-123 -231 -222 0
154 26 207 0
-97 -157 -122 0
-55 182 176 0
-71 202 237 0
-40 -195 -74 0
116 217 201 0
-58 -176 -216 0
218 -27 16 0
-88 151 -210 0
-233 130 -91 0
-160 14 -42 0
-90 139 169 0
54 228 112 0
17 69 -173 0
57 -178 -113 0
13 -25 -231 0
211 -131 41 0
86 224 -165 0
-72 -213 69 0
73 -70 -125 0
193 127 95 0
57 -71 158 0
-14 -200 -71 0
-200 -190 138 0
-48 1 65 0
-95 -151 -11 0
-22 -23 152 0
-219 -53 -112 0
-171 -235 -13 0
-131 -207 -33 0
58 -9 1 0
-144 -39 -139 0
76 153 -188 0
88 -10 -169 0
17 -154 92 0
146 -210 209 0
93 7 199 0
-120 -59 -34 0
-1 -227 -31 0
23 93 61 0
-215 17 -224 0
133 50 -82 0
-67 185 99 0
-7 -192 96 0
-115 -10 43 0
115 198 54 0
-29 201 -229 0
-240 90 -192 0
-210 163 41 0
-235 -30 -201 0
98 -163 -53 0
83 -213 -57 0
12 -198 -4 0
-216 237 -14 0
162 7 167 0
222 21 89 0
147 -150 -8 0
78 186 77 0
232 78 48 0
110 116 218 0
151 -31 78 0
67 32 21 0
10 154 -131 0
-56 -131 39 0
-152 6 -180 0
-196 -191 119 0
203 121 -142 0
112 63 65 0
-60 -160 108 0
-82 -22 -57 0
-238 -167 -74 0
175 197 -118 0
-51 84 -52 0
222 -47 -111 0
-197 -109 16 0
-175 96 132 0
2 5 56 0
-3 234 -151 0
11 32 -33 0
50 -224 240 0
47 -40 156 0
-142 -41 -194 0
163 155 236 0
-165 12 35 0
98 -1 48 0
19 -91 -76 0
-223 -240 44 0
197 179 -208 0
25 -7 -123 0
146 40 -86 0
9 45 -140 0
238 -84 168 0
137 210 -143 0
-202 -57 -208 0
-215 -38 -209 0
-55 -154 59 0
210 -171 -2 0
27 236 206 0
-112 -186 185 0
-205 -21 -109 0
-189 -163 41 0
200 -129 -109 0
-23 -230 196 0
-124 -211 -46 0
152 -86 -218 0
228 106 172 0
-44 -12 63 0
-181 42 -29 0
-232 60 -184 0
-92 142 5 0
89 90 -101 0
-146 -50 -173 0
139 -145 -104 0
-68 -120 -231 0
-92 -21 3 0
74 144 -162 0
120 179 -105 0
-131 17 111 0
60 -21 92 0
-159 -157 -95 0
-224 -19 -206 0
191 103 146 0
122 -148 -12 0
212 -25 -187 0
-164 130 -42 0
82 86 127 0
-121 -176 -40 0
-141 225 -174 0
9 107 -52 0
-92 136 -142 0
-74 89 -71 0
-96 188 -193 0
-50 42 -63 0
-111 -42 193 0
-237 -186 -34 0
161 130 -38 0
61 -45 86 0
215 -212 173 0
-176 227 88 0
-240 61 20 0
122 -88 -228 0
126 189 -120 0
158 194 204 0
-72 -109 214 0
197 190 -27 0
237 105 47 0
-85 67 100 0
66 93 83 0
176 -203 51 0
150 234 -114 0
123 -38 120 0
-206 169 158 0
108 -55 224 0
186 124 211 0
-125 -42 -209 0
-61 -155 208 0
-114 -173 -220 0
189 44 -115 0
4 222 184 0
129 -143 -172 0
-210 138 190 0
192 225 118 0
56 -116 127 0
-134 75 143 0
-192 -96 20 0
-38 15 143 0
-240 215 -44 0
-209 -22 -204 0
190 -110 130 0
74 154 -230 0
-148 -194 -219 0
-29 183 -223 0
-85 -237 126 0
34 104 -147 0
231 -72 116 0
-209 6 -169 0
51 55 190 0
225 199 228 0
225 -230 -166 0
-158 -99 -236 0
213 -230 -68 0
-9 189 -201 0
-18 112 -35 0
-53 -235 -165 0
-61 134 -167 0
233 -74 -214 0
82 -65 181 0
-64 -195 239 0
108 -110 4 0
-87 16 208 0
83 147 109 0
-182 19 -2 0
147 -2 -223 0
208 -212 -104 0
169 -102 195 0
188 -28 -205 0
86 -7 217 0
-154 -159 -216 0
-97 234 175 0
-81 -153 221 0
-227 -55 234 0
65 -102 -185 0
16 62 128 0
207 -174 138 0
225 -230 -158 0
-202 100 -239 0
-3 147 -175 0
207 154 39 0
-198 -25 -137 0
102 -21 182 0
119 -225 42 0
159 204 -167 0
66 111 -1 0
-222 -5 113 0
190 -68 177 0
-33 98 -202 0
186 134 -39 0
-111 182 202 0
-163 -10 -234 0
-162 -153 168 0
165 123 -239 0
223 -10 52 0
-77 48 24 0
48 20 37 0
-42 -131 -121 0
168 -102 30 0
-178 -146 34 0
98 -182 208 0
-190 -1 203 0
155 -22 -100 0
-2 -7 228 0
-105 24 157 0
63 84 29 0
-172 -170 132 0
-224 -34 -178 0
-111 -176 130 0
235 94 -4 0
52 -133 -46 0
143 -122 90 0
-54 222 -237 0
-154 76 -157 0
14 31 216 0
-70 76 21 0
-110 -130 94 0
-51 231 -45 0
231 37 188 0
-106 -61 -20 0
-108 225 205 0
174 195 202 0
203 148 20 0
-30 182 -106 0
-190 -214 -107 0
225 -65 4 0
-180 103 -185 0
48 -165 -10 0
-100 -104 -238 0
196 63 120 0
-112 -173 -11 0
35 21 20 0
-75 -43 80 0
-50 -77 157 0
84 -95 70 0
-233 200 -45 0
-121 -212 173 0
195 -35 160 0
33 137 202 0
-63 102 -172 0
190 -204 -178 0
73 135 126 0
68 42 99 0
-98 45 -86 0
-84 -100 -117 0
205 -228 101 0
169 -157 81 0
216 155 -143 0
48 -232 153 0
-132 70 1 0
199 -187 -21 0
-205 5 -51 0
-188 -71 43 0
-52 -225 165 0
-118 33 5 0
-17 173 -217 0
95 -208 -196 0
-31 136 -6 0
77 167 -90 0
216 12 -21 0
219 -110 -222 0
-5 -62 -214 0
-218 -54 -6 0
53 28 58 0
-54 -170 -86 0
-75 -199 -110 0
-209 -214 87 0
35 -212 66 0
-228 -61 216 0
101 94 14 0
-53 -42 -146 0
-199 -6 77 0
-205 -204 -22 0
172 -50 12 0
-40 -95 -216 0
-57 -175 -102 0
157 -194 22 0
235 -128 229 0
-82 -218 28 0
-125 -140 79 0
-41 -6 106 0
127 -68 -7 0
32 -3 -134 0
28 54 65 0
52 -22 -133 0
-156 -74 -172 0
227 -199 129 0
130 42 209 0
-89 -207 232 0
-76 150 -166 0
-214 82 171 0
-52 104 -67 0
-136 -60 -85 0
-117 -12 -67 0
-41 -75 134 0
65 151 81 0
-156 -133 236 0
91 37 92 0
-223 -140 -80 0
154 -67 -59 0
-225 45 14 0
232 -169 118 0
220 167 219 0
156 128 -111 0
-63 -236 18 0
95 -97 121 0
-89 -24 -155 0
63 -9 112 0
222 207 197 0
-195 -92 95 0
193 -69 57 0
-201 86 -14 0
-183 214 171 0
124 -101 -122 0
213 55 -101 0
31 -61 219 0
3 207 -9 0
-37 -177 6 0
-195 -226 -37 0
210 -31 -239 0
-154 141 7 0
130 121 157 0
-129 219 -121 0
-76 10 235 0
-74 -166 -227 0
-64 235 -34 0
-149 53 166 0
203 156 -130 0
-25 -36 231 0
164 -213 -126 0
129 -86 44 0
-168 -52 -151 0
-95 -194 -68 0
-116 186 -65 0
-98 -60 97 0
-164 -201 65 0
85 -63 -13 0
156 -231 -60 0
-232 -153 -80 0
123 37 -222 0
-144 -203 185 0
-236 121 -50 0
-190 -42 -219 0
192 -109 -205 0
58 -44 160 0
116 4 133 0
-85 144 -89 0
229 34 -99 0
151 221 185 0
103 -120 -138 0
140 -78 -190 0
170 68 88 0
-2 -1 43 0
49 -163 208 0
145 179 39 0
177 117 212 0
-95 117 48 0
233 -187 -28 0
-23 88 -90 0
197 60 71 0
-215 206 85 0
71 137 103 0
193 -115 9 0
148 -228 -46 0
91 -175 -153 0
61 -190 -153 0
-120 -103 67 0
-190 62 -87 0
34 136 -234 0
-226 213 -10 0
-118 -54 -228 0
-73 -236 -87 0
25 88 -164 0
-24 188 112 0
-75 223 -40 0
103 12 90 0
164 15 239 0
38 58 -12 0
-125 -190 -42 0
36 -73 -33 0
-143 194 160 0
-117 8 74 0
1 -177 42 0
-185 -42 120 0
-66 -202 -129 0
-185 138 -44 0
133 -24 -226 0
-51 23 -162 0
-144 172 -229 0
7 -115 -210 0
118 -201 190 0
-78 -119 172 0
40 228 141 0
230 -196 27 0
216 -2 -133 0
-128 -154 36 0
-217 -147 -99 0
-210 55 -205 0
-161 -22 -126 0
97 -167 -234 0
114 44 104 0
122 174 -97 0
-190 -195 174 0
201 -156 79 0
53 46 -83 0
62 -169 -156 0
42 173 -227 0
217 -181 -223 0
20 96 -106 0
227 -56 114 0
99 14 93 0
-224 -82 109 0
-99 -39 211 0
236 141 38 0
203 198 231 0
101 -145 -37 0
124 -168 73 0
207 -101 108 0
165 75 -197 0
-45 -158 -64 0
-85 -84 67 0
15 -153 156 0
45 -123 4 0
-220 178 -229 0
27 11 18 0
-112 -89 65 0
-168 116 196 0
82 1 87 0
-9 -231 233 0
64 -85 127 0
115 -182 -40 0
197 -103 172 0
-135 -24 -172 0
-27 -78 237 0
-143 88 32 0
-103 200 -181 0
-91 115 -32 0
190 51 236 0
-166 -19 84 0
-35 -133 142 0
-43 98 139 0
62 -113 165 0
21 50 -209 0
-64 81 206 0
90 6 -170 0
188 50 -121 0
60 175 210 0
-184 86 209 0
-78 -83 -72 0
-35 -182 -66 0
144 -190 192 0
-163 5 -194 0
-90 -141 -220 0
152 -160 -30 0
94 -144 -24 0
-211 -125 132 0
-6 236 -151 0
149 -17 85 0
-133 -9 -45 0
179 -163 -194 0
146 -18 159 0
-219 -99 156 0
-17 -11 -83 0
-2 71 -169 0
-33 10 -227 0
-49 -106 -8 0
-50 -133 206 0
-206 -74 132 0
173 -27 -123 0
-230 91 38 0
81 -62 194 0
98 -4 -130 0
211 132 -88 0
46 125 190 0
8 -189 31 0
-200 178 197 0
-22 52 105 0
-110 -74 164 0
-109 176 -173 0
-58 29 -33 0
-210 222 -198 0
235 71 -14 0
-5 88 73 0
-56 84 115 0
159 -118 188 0
-218 -17 117 0
-15 235 8 0
-89 -39 26 0
-18 -128 -26 0
211 154 216 0
120 -107 3 0
1 88 204 0
-167 69 -14 0
-156 -118 -164 0
-79 -62 -14 0
62 -32 -183 0
-162 240 -116 0
-210 -116 192 0
105 -42 27 0
-18 75 -209 0
49 -170 -14 0
-26 -110 156 0
144 -52 -24 0
73 45 216 0
48 -172 128 0
85 26 -9 0
-31 -219 -183 0
-149 -78 196 0
-197 -66 165 0
190 219 -152 0
-212 232 -161 0
90 87 -95 0
-191 5 225 0
-150 -28 -132 0
48 39 233 0
-137 -95 237 0
-81 -8 51 0
-71 126 -216 0
-102 138 -35 0
52 -222 -77 0
192 -63 4 0
-193 63 -141 0
-25 -67 -163 0
145 204 -150 0
-88 -164 -131 0
98 155 39 0
-179 -16 -205 0
132 -21 -123 0
-111 77 -130 0
214 192 61 0
-148 -97 -100 0
222 32 210 0
4 54 209 0
203 -37 -113 0
126 144 -108 0
-82 -189 -181 0
127 -196 -182 0
-25 -217 165 0
-215 -26 -156 0
213 -141 3 0
-195 -132 -179 0
-82 118 -182 0
-112 -29 45 0
-128 -216 217 0
135 204 -30 0
236 135 -1 0
98 -49 169 0
-6 208 47 0
58 -11 157 0
226 82 84 0
12 -102 -44 0
-165 -58 -222 0
-105 82 -59 0
47 222 -148 0
-187 199 -168 0
-89 82 87 0
-84 66 -219 0
215 -230 237 0
234 -50 225 0
140 115 4 0
-229 181 -18 0
-58 -9 129 0
-75 68 -137 0
-93 4 -222 0
-11 130 -240 0
94 43 10 0
148 -49 91 0
-130 108 -197 0
125 19 177 0
149 -215 -197 0
198 101 134 0
232 161 137 0
221 210 -74 0
-96 126 -239 0
93 28 -86 0
-43 -234 60 0
-19 -179 178 0
-175 -218 -33 0
-16 214 -172 0
-176 77 78 0
230 -160 203 0
154 -183 -193 0
-178 -212 218 0
12 69 -18 0
9 -122 15 0
-106 -145 236 0
-143 137 224 0
236 83 76 0
-21 211 -223 0
72 215 -35 0
41 204 -114 0
-209 134 -47 0
-106 154 31 0
64 -35 100 0
-218 235 -18 0
15 214 -26 0
194 98 -169 0
-154 -46 -135 0
69 -230 -137 0
-228 208 52 0
74 -221 -43 0
-88 190 -221 0
167 -181 -219 0
195 -212 -79 0
-27 -176 188 0
-17 -74 -176 0
151 -218 -228 0
-75 115 -54 0
106 77 -5 0
215 -44 -117 0
120 49 -223 0
-202 146 102 0
15 40 140 0
125 -152 -164 0
-151 -144 -71 0
50 131 -169 0
129 230 -113 0
-117 -12 -137 0
-88 -135 -40 0
-8 96 69 0
190 220 -135 0
-38 -181 -155 0
-110 -32 14 0
-98 -21 -33 0
119 51 -3 0
-185 161 231 0
9 53 21 0
146 73 164 0
12 -236 -203 0
-149 -47 79 0
-106 -200 218 0
-105 90 224 0
-150 78 -156 0
-72 100 -139 0
-52 83 18 0
133 193 -181 0
26 -213 -88 0
23 -58 152 0
122 -119 92 0
-128 -92 -40 0
106 -225 181 0
-239 -190 -115 0
175 147 -29 0
-189 -177 -11 0
-134 165 -136 0
4 -80 158 0
-165 11 -220 0
44 12 21 0
58 -169 -217 0
-54 30 98 0
-73 -129 -63 0
-2 -197 -224 0
81 -57 216 0
-64 122 66 0
161 184 44 0
-90 220 -229 0
177 -16 18 0
239 172 152 0
58 -210 -188 0
-221 -40 84 0
-159 115 -156 0
-121 213 147 0
198 -24 -6 0
150 -5 -76 0
67 -12 146 0
-183 -27 -58 0
147 -233 -135 0
-52 19 -108 0
47 -100 -39 0
-229 113 -119 0
-114 -238 168 0
-32 -178 95 0
-64 -41 176 0
34 103 -52 0
180 205 224 0
-82 12 -219 0
11 152 125 0
141 -43 54 0
-136 83 171 0
-172 -185 119 0
-58 66 210 0
-72 129 -14 0
193 238 -98 0
72 -201 -140 0
-33 -53 -70 0
-163 -62 -174 0
138 -186 -117 0
9 227 116 0
82 -197 -149 0
151 -172 27 0
79 157 -218 0
41 57 70 0
53 -70 12 0
111 181 108 0
154 162 114 0
133 218 130 0
-116 197 7 0
225 -153 203 0
191 -159 -166 0
178 -212 83 0
76 -211 -212 0
-104 13 147 0
26 75 -204 0
-37 -124 -73 0
-117 -106 -232 0
-67 -203 -44 0
-218 109 -164 0
-109 18 87 0
232 -92 82 0
-97 -104 -111 0
23 222 21 0
211 62 176 0
-40 -132 72 0
231 -156 -43 0
155 -42 213 0
-192 -89 138 0
143 58 66 0
190 -185 207 0
-57 -181 133 0
96 23 84 0
-26 -125 -154 0
143 -203 -112 0
176 128 211 0
-174 -220 38 0
-123 106 -228 0
-23 232 -149 0
-120 197 116 0
-167 102 110 0
-181 230 40 0
18 -127 -115 0
-128 77 -175 0
-60 2 -76 0
-75 -174 -15 0
-83 -56 36 0
103 204 124 0
181 84 -145 0
-15 165 -160 0
21 53 108 0
-146 103 -214 0
-237 151 189 0
54 102 156 0
-107 131 -97 0
45 108 -99 0
48 71 182 0
-103 -93 7 0
229 162 75 0
-134 -81 -110 0
-182 -78 -30 0
-49 132 -22 0
-100 -236 114 0
-218 -238 46 0
91 228 -190 0
66 63 83 0
-32 -72 203 0
-202 -66 -133 0
145 -177 225 0
122 147 222 0
-213 -138 -167 0
215 -236 228 0
-70 -19 -13 0
214 66 -15 0
-205 79 41 0
-71 -121 12 0
228 -187 -204 0
-72 189 206 0
-150 -136 -143 0
182 100 145 0
-154 122 -53 0
92 -142 166 0
132 -226 103 0
227 13 121 0
-112 190 107 0
189 -119 200 0
211 88 206 0
90 199 -227 0
-38 -99 55 0
-14 207 237 0
-99 -119 -129 0
-9 168 -206 0
171 105 132 0
-185 146 237 0
21 118 -198 0
-1 -228 157 0
55 -209 125 0
-132 -85 -2 0
-45 -149 36 0
-18 -221 218 0
-232 158 -34 0
-222 -240 -225 0
-122 217 -120 0
54 15 -106 0
-6 -239 3 0
204 101 -240 0
131 -159 55 0
-143 -98 -63 0
-116 47 -209 0
228 -14 -220 0
171 172 -166 0
-21 7 -48 0
-165 -215 28 0
214 126 -91 0
155 42 -223 0
-75 -57 100 0
53 -133 152 0
27 -36 221 0
147 -26 -101 0
-205 -11 5 0
101 -99 -180 0
36 -140 -132 0
41 104 -221 0
191 228 201 0
72 20 192 0
-144 -61 -188 0
-211 138 151 0
-46 -45 -231 0
124 19 -121 0
-56 47 174 0
-155 151 54 0
161 213 102 0
74 22 -165 0
53 -124 110 0
123 -149 -138 0
29 -79 115 0
83 26 195 0
-164 -66 -132 0
140 -155 -33 0
28 193 132 0
-31 -133 -100 0
-151 171 -83 0
177 -68 229 0
-158 -124 3 0
-192 54 194 0
192 -104 61 0
-238 239 -11 0
-92 -23 240 0
150 71 129 0
-98 53 -153 0
139 -73 -146 0
20 186 -231 0
-62 -34 192 0
-133 -148 -120 0
-113 -153 -234 0
-28 -172 -71 0
-39 -77 -9 0
13 158 -225 0
85 68 106 0
-114 -126 -172 0
-91 -15 -169 0
-97 -129 -37 0
-89 -88 -106 0
-142 -110 126 0
100 -170 197 0
229 79 -29 0
18 -38 -240 0
-180 57 143 0
-171 94 68 0
-139 114 -21 0
-149 103 236 0
-110 -226 192 0
-69 -15 -25 0
-201 -187 -216 0
-89 -210 109 0
11 -196 -59 0
-166 153 59 0
-229 231 219 0
72 47 -184 0
-181 169 202 0
76 -124 138 0
-152 90 -102 0
222 8 -166 0
232 -101 -82 0
-193 213 -24 0
224 103 52 0
-190 52 -203 0
237 91 55 0
-219 111 70 0
-180 -40 -99 0
-110 76 -27 0
-14 -85 -47 0
-75 -190 95 0
189 -24 103 0
-211 186 -219 0
232 41 -61 0
23 99 -51 0
-136 -172 -214 0
107 -37 -86 0
14 -46 210 0
-50 192 -5 0
-101 -237 -110 0
199 -155 103 0
13 -129 -8 0
4 -136 37 0
-1 76 -145 0
-44 -181 107 0
65 -88 238 0
-127 131 -201 0
39 -132 141 0
203 209 180 0
-142 -161 -179 0
-22 199 210 0
-70 -81 -177 0
-214 193 -26 0
-125 -136 -174 0
-12 -239 -162 0
-136 76 -204 0
-200 29 45 0
-42 -47 231 0
-90 -140 202 0
-156 120 -169 0
81 -219 -165 0
5 -230 76 0
-211 59 30 0
-38 -31 -13 0
171 -197 -160 0
56 188 34 0
65 49 78 0
85 199 -218 0
216 195 -85 0
-104 -181 33 0
-152 -214 138 0
-160 -236 -174 0
27 143 160 0
-20 81 172 0
-182 231 147 0
237 -182 -231 0
-219 -189 -188 0
113 142 206 0
-103 89 92 0
99 -12 -236 0
-16 79 5 0
95 -212 -207 0
-70 129 -223 0
48 100 -171 0
-240 -75 -92 0
-97 203 172 0
105 -103 -158 0
-235 -131 83 0
198 80 -175 0
10 -132 124 0
2 -1 -28 0
-181 -64 -122 0
234 186 -79 0
-10 -137 152 0
-204 182 106 0
3 18 84 0
-188 82 97 0
132 -232 206 0
207 -48 145 0
73 -103 63 0
-6 73 -200 0
-124 66 -7 0
-111 -220 53 0
-28 175 -219 0
98 48 -77 0
-23 -54 -175 0
-49 -97 52 0
-206 171 153 0
173 -212 -99 0
149 -37 -197 0
-39 52 -188 0
160 -220 55 0
209 -232 -204 0
115 11 44 0
-214 52 -168 0
-169 109 -62 0
-235 36 94 0
-174 171 117 0
-92 -89 230 0
-174 -196 58 0
122 169 130 0
-216 -210 -198 0
-50 183 -223 0
