c Random 3-SAT instance at phase transition
c vars=229 clauses=977 ratio=4.267 seed=2
p cnf 229 977
19 -69 212 0
-45 -157 63 0
65 -166 -147 0
144 -99 87 0
221 -62 -36 0
-136 -103 -175 0
77 -52 148 0
-116 -126 -77 0
-106 101 212 0
-7 -206 68 0
-27 31 -66 0
-198 -119 -30 0
64 -213 -183 0
104 -165 -164 0
206 -79 -95 0
-211 93 -57 0
-48 134 95 0
131 -119 193 0
-146 -152 208 0
189 -30 65 0
217 19 -154 0
-79 -122 -191 0
-183 81 -13 0
-151 102 -196 0
-163 -113 46 0
-205 149 217 0
-96 -6 44 0
173 202 188 0
200 -207 1 0
-154 -86 -225 0
110 211 -198 0
-145 14 -216 0
-77 6 -62 0
209 -137 -131 0
-25 36 20 0
185 130 -221 0
-20 -24 -126 0
-172 -104 5 0
88 1 -151 0
171 120 99 0
-82 -32 -88 0
-168 62 92 0
172 165 -41 0
-42 11 -134 0
90 128 -50 0
74 67 -145 0
-82 -79 51 0
-186 136 -159 0
-201 -139 24 0
-47 169 105 0
-125 -116 -168 0
-166 -78 -226 0
36 203 26 0
202 159 194 0
-26 34 -139 0
-186 70 -132 0
-27 -114 180 0
-120 -12 5 0
-211 -125 196 0
213 -197 28 0
210 -204 -146 0
159 -120 -155 0
-219 12 -115 0
-144 -79 -147 0
6 -166 -227 0
96 123 37 0
8 -182 -47 0
106 162 -173 0
-213 103 119 0
111 6 137 0
-163 -167 53 0
-190 15 113 0
-141 82 -72 0
55 -144 -199 0
25 84 120 0
52 -101 -100 0
-168 -51 -63 0
-227 174 213 0
-216 -178 -98 0
109 73 38 0
149 -150 178 0
-111 -47 101 0
-13 50 -61 0
-198 205 30 0
-80 177 -69 0
90 118 75 0
-209 -94 -31 0
226 -116 -13 0
-7 106 97 0
-45 143 -167 0
26 -104 -57 0
123 -176 -63 0
-220 104 -130 0
-87 155 -92 0
-124 -226 -73 0
-58 -13 31 0
139 -205 78 0
130 -172 -104 0
133 -148 104 0
140 -136 58 0
57 -65 -42 0
194 97 102 0
17 -212 -70 0
214 176 122 0
108 81 -126 0
98 136 -118 0
62 112 134 0
147 -84 -62 0
183 -177 120 0
-3 -62 189 0
-70 13 19 0
-204 190 197 0
-179 -228 -154 0
194 -126 -124 0
-49 -209 -53 0
-210 182 -66 0
119 -113 147 0
71 -174 -91 0
29 -87 -201 0
-158 81 -189 0
-22 -143 -201 0
-113 -31 51 0
-90 -24 -134 0
73 -40 154 0
-142 -38 58 0
-38 -89 -226 0
-18 -44 142 0
8 -139 192 0
36 113 -210 0
154 -93 -226 0
191 -98 59 0
-64 180 91 0
61 -108 145 0
155 -187 143 0
9 -26 16 0
22 -53 100 0
113 -70 -182 0
-94 -5 -119 0
229 15 -112 0
63 195 204 0
-133 -135 204 0
3 216 -190 0
-120 119 -217 0
206 -85 -223 0
-20 112 -172 0
10 89 129 0
134 -220 118 0
77 -225 139 0
45 -208 -35 0
-59 -19 -107 0
215 198 201 0
-194 6 102 0
77 -206 -46 0
-62 -129 -10 0
-84 -163 224 0
197 120 135 0
182 201 77 0
117 -58 144 0
70 -102 -38 0
-187 -19 177 0
-154 105 -217 0
223 -157 133 0
22 -198 65 0
214 -29 116 0
-113 2 13 0
100 44 -95 0
151 -107 -161 0
120 91 182 0
95 -39 -153 0
87 156 86 0
13 83 175 0
-71 -3 136 0
-102 90 195 0
184 205 -52 0
-142 200 162 0
-4 181 217 0
209 -172 119 0
138 -140 -171 0
3 48 120 0
14 -7 187 0
146 93 203 0
203 192 -79 0
-178 -140 -166 0
-48 77 -118 0
-214 67 132 0
-116 -153 176 0
48 -39 -115 0
216 125 162 0
34 129 151 0
194 78 218 0
-74 119 -191 0
-216 -57 -113 0
20 9 221 0
32 -149 -150 0
-143 188 -85 0
-163 -166 137 0
135 68 98 0
75 -116 -26 0
-146 228 127 0
-162 -15 -144 0
70 187 -178 0
191 -91 -166 0
172 -111 158 0
-61 155 66 0
-135 -43 184 0
122 -112 188 0
131 -160 90 0
74 23 205 0
-227 -176 126 0
-1 35 -181 0
155 201 -79 0
222 -152 150 0
154 -211 -122 0
96 -216 -197 0
-110 -196 -118 0
167 -201 164 0
-212 -158 147 0
-32 211 -226 0
188 176 162 0
-209 175 61 0
-99 -91 213 0
-165 -114 -15 0
-63 164 -82 0
-68 -43 -193 0
92 -85 62 0
-107 -214 -49 0
-46 126 -161 0
-171 222 -39 0
193 -189 108 0
-222 -20 145 0
-175 -126 200 0
52 124 -179 0
-158 -124 -38 0
-162 -11 41 0
49 172 -117 0
-218 -222 -137 0
167 -208 -136 0
13 -21 47 0
-218 -210 64 0
14 167 163 0
179 202 205 0
-144 142 -57 0
-18 -71 172 0
-85 -135 136 0
207 210 176 0
-160 8 54 0
-186 -31 -75 0
192 -98 208 0
26 -163 -64 0
-137 88 136 0
-72 -207 125 0
57 133 105 0
27 -75 177 0
-72 -214 -84 0
-177 185 -115 0
-104 200 -1 0
220 184 132 0
-62 22 147 0
-119 -183 196 0
93 48 12 0
214 215 -60 0
28 201 -158 0
31 -111 168 0
-219 -99 -50 0
-117 27 -44 0
171 4 27 0
170 83 -186 0
11 -155 14 0
-60 212 21 0
-118 21 -93 0
-185 -90 -11 0
-5 81 -190 0
167 -166 -98 0
167 31 -105 0
-93 -128 -61 0
92 1 222 0
65 62 -145 0
-85 8 27 0
23 -163 -207 0
-158 95 160 0
-7 -219 91 0
170 -116 -133 0
-141 -208 1 0
150 -123 -11 0
100 207 110 0
58 141 31 0
30 65 -57 0
-92 -180 -155 0
172 4 -63 0
-119 203 152 0
161 185 -206 0
138 -105 -147 0
31 -221 56 0
114 36 144 0
-161 -130 2 0
-17 96 209 0
144 -49 -30 0
-54 161 -25 0
-78 113 -207 0
146 142 -147 0
-185 148 213 0
200 9 224 0
-13 -142 76 0
-32 -185 -86 0
35 51 -195 0
-86 164 -137 0
-51 172 190 0
6 223 55 0
209 -64 116 0
95 -88 181 0
8 160 87 0
-92 -146 -102 0
-113 -206 -91 0
-55 150 -139 0
153 84 5 0
-186 101 -108 0
-180 -88 191 0
108 -133 120 0
-124 -29 -52 0
-19 67 -65 0
45 -9 141 0
-37 -172 202 0
-60 153 221 0
-32 -71 -20 0
-29 169 154 0
138 -188 69 0
-105 30 -216 0
154 -7 3 0
-178 91 215 0
138 219 78 0
146 -1 100 0
115 -58 -73 0
-133 221 106 0
130 -1 -43 0
218 206 -81 0
22 85 -139 0
86 -15 -65 0
57 19 -190 0
218 168 -114 0
165 -91 -143 0
4 44 -112 0
63 195 138 0
-10 169 -137 0
-114 -25 -21 0
-15 18 -46 0
-49 -217 -200 0
-186 -214 -168 0
-187 56 142 0
154 169 -166 0
-218 -36 144 0
216 123 53 0
170 225 -49 0
-217 109 -173 0
83 -202 121 0
-206 -10 -103 0
225 -136 23 0
-185 129 -209 0
218 -165 208 0
-74 221 204 0
176 122 220 0
-139 -109 49 0
-130 211 -207 0
117 -34 -109 0
-142 -179 -43 0
-137 47 81 0
44 -228 -209 0
172 92 224 0
26 -176 20 0
33 -128 115 0
-135 225 176 0
29 128 104 0
218 -72 126 0
-33 -159 -104 0
15 -199 -92 0
35 -190 -28 0
-95 -127 -20 0
79 19 189 0
-155 -47 65 0
-136 149 -130 0
-13 52 -213 0
-97 -81 122 0
17 13 186 0
-10 134 65 0
-62 226 -39 0
94 -187 13 0
7 176 -180 0
214 74 -191 0
-148 -212 201 0
-14 -181 -115 0
27 88 -186 0
23 -220 64 0
130 -153 -25 0
-229 197 14 0
129 174 -137 0
168 209 77 0
-118 -163 -207 0
207 168 18 0
-63 -208 -185 0
-105 204 190 0
-106 -42 3 0
220 -202 -145 0
-90 159 -101 0
70 -45 -59 0
208 -166 -16 0
-31 -203 139 0
119 -35 -190 0
36 -58 -100 0
-180 -227 66 0
13 -15 125 0
-205 199 35 0
147 53 -35 0
-209 -193 -215 0
131 -198 -120 0
-1 -169 108 0
-161 -224 -133 0
152 -23 13 0
210 -183 -152 0
210 -4 216 0
218 -29 -201 0
-134 14 -87 0
-39 26 -94 0
-188 97 165 0
83 -192 32 0
133 168 210 0
-182 206 217 0
-142 -163 -12 0
-14 182 -21 0
6 -26 54 0
-107 -51 -21 0
-40 98 133 0
132 -3 -211 0
-173 165 104 0
209 107 105 0
113 158 25 0
-74 -203 158 0
133 -102 109 0
-56 152 -207 0
104 -32 -118 0
-67 188 -26 0
156 96 -24 0
-151 -178 75 0
181 34 -200 0
223 3 33 0
140 68 177 0
-219 54 -217 0
-195 78 -210 0
210 58 -44 0
132 158 6 0
-145 132 134 0
155 -156 -11 0
121 219 -226 0
-173 109 29 0
36 -95 79 0
-51 186 -20 0
-93 82 -14 0
-141 -169 -221 0
27 5 -179 0
-2 62 -92 0
165 102 196 0
44 -189 185 0
172 -121 174 0
-115 -220 221 0
-34 123 -10 0
215 -108 69 0
-182 -13 -128 0
-31 211 -223 0
-129 18 -40 0
-51 -98 140 0
152 170 -88 0
-61 144 194 0
85 -118 136 0
-95 -11 -157 0
145 37 137 0
182 216 -104 0
-44 -63 31 0
-118 -93 -159 0
-71 111 113 0
-76 204 190 0
86 19 109 0
-169 -15 188 0
-59 -210 -44 0
-36 -57 38 0
9 -102 182 0
-40 -229 -143 0
15 -72 -5 0
-209 218 87 0
-39 -210 182 0
181 -22 -73 0
-228 -118 -164 0
-199 -185 -107 0
-151 166 -211 0
143 -207 -140 0
-2 199 94 0
35 26 192 0
-111 29 -187 0
28 -142 -192 0
174 166 155 0
-166 -44 -20 0
198 -73 204 0
164 -57 173 0
65 -87 105 0
5 47 -84 0
-206 29 204 0
78 -222 147 0
-150 35 -36 0
60 -184 -116 0
77 148 -56 0
-110 -75 51 0
-153 84 -139 0
125 106 -178 0
185 216 140 0
-76 112 -133 0
-166 -31 186 0
181 -105 210 0
-57 219 56 0
-114 154 -58 0
137 9 57 0
54 -71 -110 0
-105 193 159 0
126 50 37 0
186 194 89 0
227 -96 54 0
-59 -170 -47 0
-162 122 -10 0
55 65 -222 0
125 -116 -120 0
-79 138 -67 0
-184 67 -25 0
74 -18 -19 0
-174 -89 -133 0
177 -138 140 0
-201 -34 -136 0
70 -50 74 0
-18 -98 -114 0
115 -63 -132 0
84 27 106 0
59 218 -214 0
-220 66 -114 0
3 161 -203 0
-213 171 -62 0
212 -146 -27 0
-229 -215 -72 0
145 133 180 0
78 -122 39 0
2 71 48 0
-74 193 -36 0
67 201 -21 0
-51 -156 169 0
126 -155 -123 0
-61 -212 -160 0
94 -190 -134 0
-16 -224 216 0
-88 64 -56 0
-134 18 46 0
219 52 -50 0
-24 97 17 0
174 -129 -101 0
217 -58 -112 0
173 -85 201 0
183 166 225 0
6 -18 217 0
-221 -12 68 0
-70 -28 216 0
107 85 -136 0
-150 176 -45 0
157 -11 70 0
-75 -151 -189 0
170 -166 169 0
57 20 -134 0
-172 -192 -99 0
-126 193 -169 0
-189 -127 68 0
-167 -165 -87 0
-204 -206 -189 0
-188 169 98 0
97 177 28 0
-12 186 -172 0
-195 -86 -74 0
166 37 44 0
-87 -225 53 0
159 -101 224 0
-179 65 219 0
-147 -130 -10 0
32 124 -138 0
93 83 -89 0
-96 59 39 0
-73 31 -37 0
-80 -129 44 0
23 53 74 0
-216 67 -145 0
-202 58 -105 0
-80 34 205 0
-160 46 15 0
196 -189 135 0
118 184 -24 0
-127 -68 131 0
-65 29 86 0
-26 -44 -213 0
-99 -39 -64 0
-28 156 -58 0
50 190 -118 0
-173 -32 175 0
-142 225 80 0
-46 22 129 0
2 208 93 0
-123 158 -157 0
-205 -49 79 0
-132 168 -87 0
76 114 121 0
-156 114 101 0
199 -52 119 0
-108 -167 -45 0
191 -37 177 0
-157 175 193 0
-191 152 -4 0
78 -85 197 0
145 213 -218 0
-147 -206 -155 0
215 -32 -43 0
-217 87 -108 0
124 -209 -110 0
126 226 -163 0
-213 117 -226 0
80 -226 -212 0
-19 -101 134 0
14 177 166 0
140 -33 132 0
119 -88 -130 0
-35 -228 -131 0
43 160 185 0
101 121 203 0
-87 92 122 0
96 -173 62 0
184 -9 6 0
-106 152 131 0
11 -126 127 0
-154 71 197 0
-162 73 34 0
193 -41 -84 0
-128 215 55 0
52 -38 -161 0
204 33 42 0
-12 3 -97 0
33 -15 -122 0
204 155 193 0
-3 81 -26 0
-175 177 -136 0
-97 -24 75 0
-86 105 93 0
-19 -75 -78 0
-55 174 204 0
86 178 -159 0
-100 162 3 0
54 -57 -51 0
119 80 -1 0
120 170 -183 0
-179 -7 -182 0
119 197 199 0
166 202 91 0
-202 197 214 0
-205 162 129 0
29 -77 212 0
152 -100 134 0
162 167 -2 0
147 78 -205 0
-200 11 8 0
-86 -185 -72 0
147 -45 -6 0
-17 -14 -88 0
111 7 -222 0
-91 38 113 0
96 -215 -124 0
-171 -54 -133 0
194 171 -149 0
99 170 -22 0
99 -67 -2 0
156 211 -35 0
-59 126 165 0
134 52 205 0
13 -29 -75 0
-56 221 -108 0
196 -155 -93 0
-181 -31 60 0
-49 -188 -14 0
39 118 -219 0
96 29 200 0
148 -154 -218 0
-215 -143 116 0
-56 -205 85 0
75 -167 227 0
166 106 -37 0
-32 -33 4 0
-95 -136 163 0
-52 229 -58 0
-43 92 -195 0
148 187 -120 0
124 -136 4 0
145 35 112 0
-28 158 -136 0
111 -58 47 0
-172 -51 -199 0
186 -66 -135 0
224 57 -72 0
-42 -135 157 0
119 214 2 0
184 14 225 0
21 -30 23 0
-48 -53 -200 0
-186 -169 -168 0
179 -44 105 0
46 180 -12 0
43 -220 200 0
184 -71 -148 0
-62 150 -172 0
43 -228 11 0
51 -225 122 0
-223 221 -15 0
211 -207 138 0
-91 145 19 0
132 -199 -203 0
111 -190 -57 0
-193 43 82 0
-165 64 -34 0
-58 -80 -199 0
-199 181 4 0
42 165 40 0
37 212 184 0
-25 -101 176 0
-121 -87 97 0
-190 93 -203 0
71 146 -84 0
-174 225 19 0
-126 169 -2 0
-33 -105 78 0
135 -154 220 0
-173 -36 223 0
-28 144 169 0
38 -7 -97 0
-31 176 -135 0
185 127 54 0
-211 -29 133 0
18 -212 73 0
183 125 -84 0
-212 2 -129 0
134 -99 86 0
-29 -118 4 0
122 46 -18 0
195 229 174 0
56 -220 43 0
151 -98 -6 0
-37 -191 -175 0
-193 29 -106 0
-153 30 164 0
135 -126 90 0
-139 -129 -48 0
17 -156 -180 0
29 -185 2 0
121 95 75 0
-118 173 -219 0
-11 226 -173 0
207 200 56 0
157 224 -72 0
134 93 66 0
105 -79 -71 0
166 121 50 0
222 82 87 0
167 162 33 0
-33 -159 177 0
213 158 155 0
-12 -25 -129 0
-174 -28 -6 0
-51 80 -96 0
-137 79 -100 0
-134 -67 194 0
-222 201 10 0
196 91 149 0
-69 181 220 0
96 -151 30 0
165 52 -83 0
223 45 -96 0
218 171 -222 0
18 56 -183 0
-121 -123 202 0
-214 -86 -17 0
133 -47 -178 0
32 162 -74 0
-27 -106 12 0
43 205 -88 0
19 -28 33 0
205 175 100 0
-222 112 -153 0
161 -110 5 0
43 53 -141 0
-141 -158 -53 0
214 181 66 0
175 156 -177 0
-17 -180 105 0
206 -222 -215 0
-206 -19 57 0
179 95 -61 0
-129 -56 -150 0
20 22 -102 0
-70 162 73 0
184 -42 220 0
154 -155 -40 0
-203 -112 61 0
-15 83 106 0
-123 -153 111 0
116 -153 84 0
156 76 -65 0
-172 -144 148 0
-118 36 56 0
-193 -204 -121 0
32 -96 195 0
210 78 -110 0
10 -175 126 0
191 35 144 0
-133 224 148 0
-174 -8 135 0
52 64 -158 0
156 120 149 0
139 -132 166 0
-225 107 -125 0
-6 220 16 0
-83 210 -125 0
81 31 -47 0
177 209 93 0
121 -158 -99 0
179 -22 195 0
-206 195 154 0
-212 -146 154 0
121 -79 89 0
229 -133 62 0
140 -69 50 0
227 63 182 0
-47 32 -157 0
44 -171 -16 0
143 90 160 0
217 -214 -206 0
201 198 37 0
79 69 183 0
61 19 -206 0
-125 107 119 0
-28 -8 -215 0
128 83 27 0
-16 86 104 0
-27 -167 153 0
90 -213 68 0
57 -221 -143 0
67 127 18 0
-54 56 -172 0
-228 -160 -37 0
162 84 -149 0
226 70 4 0
203 -10 42 0
74 115 -33 0
185 -36 112 0
-93 82 129 0
-222 -71 196 0
-223 -166 114 0
163 -87 83 0
89 33 -167 0
124 217 -174 0
-119 145 219 0
-169 82 187 0
77 129 164 0
-164 -96 -214 0
-69 -18 128 0
-51 62 4 0
55 -214 65 0
5 -196 -64 0
46 -66 146 0
8 -25 -126 0
-93 -141 -180 0
-113 130 156 0
-168 -217 43 0
-213 37 -11 0
106 -129 -2 0
14 130 -127 0
-114 221 -72 0
89 34 -218 0
77 94 -169 0
29 -117 -110 0
86 -170 104 0
157 137 35 0
195 -215 -89 0
-36 -101 -157 0
181 212 173 0
-141 -188 -58 0
27 83 54 0
89 104 -81 0
197 198 -93 0
97 32 132 0
-50 103 -49 0
-213 49 -20 0
42 175 105 0
-65 -103 -74 0
-84 222 -228 0
-151 -13 -122 0
-90 -160 146 0
123 14 -227 0
-24 -44 155 0
132 17 95 0
-67 -188 -71 0
219 -193 61 0
137 -20 169 0
-28 -76 226 0
106 109 168 0
-203 -54 -11 0
24 -37 198 0
181 195 39 0
-176 38 -216 0
-47 -143 -10 0
-208 -127 45 0
119 133 130 0
195 137 64 0
170 204 -90 0
197 -130 218 0
117 -75 -122 0
156 -115 -159 0
48 133 168 0
15 53 -204 0
122 69 -144 0
75 -130 -208 0
200 64 27 0
-173 126 -51 0
200 151 -168 0
153 -16 113 0
150 -211 166 0
-75 39 -178 0
-198 186 -144 0
-196 -134 34 0
-177 -190 163 0
45 -176 -81 0
-116 -64 -72 0
-213 201 -41 0
41 192 108 0
1 201 -174 0
-11 40 103 0
-47 156 -146 0
55 -157 111 0
-225 83 -117 0
-184 16 15 0
-3 175 -36 0
191 205 -202 0
-50 29 -210 0
100 -76 -219 0
40 -33 -129 0
-165 -173 -1 0
-91 173 128 0
-100 -224 -122 0
56 -213 -154 0
211 101 148 0
-216 -144 214 0
11 -118 -223 0
-57 38 -149 0
198 91 -158 0
216 -28 34 0
64 -21 -130 0
-158 146 98 0
60 104 208 0
-154 206 28 0
189 -194 151 0
84 -105 -65 0
208 -219 -39 0
-227 -6 -99 0
110 179 223 0
189 -77 -225 0
41 141 174 0
30 107 56 0
-20 39 150 0
31 201 74 0
-102 -128 -101 0
227 138 44 0
-63 79 -171 0
41 89 -229 0
189 -55 218 0
