c Random 3-SAT instance at phase transition
c vars=110 clauses=469 ratio=4.267 seed=1
p cnf 110 469
91 108 -88 0
-29 -88 43 0
-60 -23 46 0
22 16 24 0
-5 -35 -30 0
14 42 -57 0
-53 6 26 0
44 71 -34 0
-88 96 -30 0
110 14 -95 0
-76 54 -1 0
91 -105 -96 0
74 -19 -7 0
37 71 5 0
-15 -70 -110 0
-33 -107 32 0
-75 59 66 0
107 -81 -55 0
109 -20 -13 0
-24 14 -17 0
-27 -83 -97 0
77 -44 -42 0
-90 65 -94 0
23 -1 -25 0
108 -34 4 0
-2 22 -36 0
107 89 97 0
-64 -82 -22 0
-14 -67 45 0
103 -17 96 0
-100 -76 -59 0
79 73 -64 0
-10 -1 20 0
57 7 -44 0
66 81 -64 0
78 -21 -46 0
100 44 19 0
19 -58 -29 0
-13 -46 -41 0
-52 -38 96 0
42 -80 31 0
-93 -23 7 0
10 5 -38 0
86 73 -34 0
-80 -18 79 0
-62 34 28 0
-31 -18 -73 0
-64 73 88 0
-4 -8 93 0
103 14 30 0
72 85 43 0
106 -91 21 0
-62 1 56 0
63 20 80 0
-18 -56 101 0
82 61 -39 0
6 72 26 0
58 -11 -87 0
-40 79 -14 0
77 -90 39 0
49 68 74 0
-1 71 26 0
-98 47 -102 0
-2 -74 -35 0
-96 -31 29 0
50 7 29 0
-15 13 -47 0
-23 54 89 0
63 -9 -34 0
12 105 6 0
81 34 -87 0
89 -84 -95 0
-44 86 79 0
-6 -78 62 0
6 92 36 0
-23 -7 21 0
-30 -63 -56 0
29 8 37 0
101 -35 -76 0
44 -75 46 0
65 48 7 0
60 -18 -97 0
34 -32 101 0
-100 97 31 0
13 -19 -78 0
-3 28 50 0
4 84 68 0
-79 -9 -26 0
49 -55 -90 0
-32 38 -36 0
102 37 -96 0
-1 27 -107 0
-23 78 75 0
32 74 68 0
-7 -61 36 0
-65 36 -103 0
-38 -109 82 0
79 29 -61 0
67 -59 60 0
98 -47 -83 0
42 107 -58 0
65 64 -60 0
-18 -53 20 0
109 -17 -58 0
-92 -20 -77 0
-13 105 1 0
-73 -81 -11 0
-20 17 -93 0
3 51 77 0
44 -101 93 0
-62 78 105 0
-107 4 -104 0
-77 21 -109 0
25 85 97 0
94 23 -20 0
29 104 61 0
-48 -41 52 0
-18 61 -88 0
109 80 -92 0
-30 31 75 0
-53 87 105 0
-1 -100 102 0
-13 -30 -86 0
-93 23 52 0
-57 -102 -77 0
-14 26 -21 0
54 -95 -8 0
-13 72 61 0
108 52 20 0
-84 73 5 0
-52 -15 -30 0
45 -65 -48 0
107 3 -36 0
-6 -78 44 0
107 -38 -35 0
36 100 110 0
18 -56 -1 0
-53 -60 -23 0
80 -102 -43 0
41 87 -78 0
91 84 2 0
79 30 -107 0
86 -12 92 0
9 109 20 0
48 -30 -9 0
20 81 44 0
-12 -70 106 0
-19 -63 34 0
-45 -55 -82 0
-96 98 -61 0
42 83 -35 0
-64 -37 44 0
-77 -29 94 0
94 73 -86 0
-89 -19 67 0
-38 104 110 0
55 104 83 0
-17 103 -12 0
76 57 7 0
-39 23 95 0
-22 -24 4 0
-46 39 11 0
-22 -72 101 0
-19 40 -93 0
-6 92 -1 0
36 99 69 0
31 79 -105 0
-74 38 91 0
-58 -29 -106 0
-68 -104 -101 0
24 -72 42 0
-86 -22 -97 0
67 29 65 0
76 6 15 0
16 -60 -31 0
-103 37 72 0
89 36 100 0
74 11 -69 0
-55 22 85 0
79 -22 45 0
83 99 -37 0
-17 76 -7 0
49 86 93 0
-79 -18 20 0
64 8 -65 0
24 33 -52 0
104 -79 62 0
-81 -78 74 0
-43 -98 86 0
53 78 101 0
15 -31 40 0
-100 -46 6 0
-30 48 -25 0
-21 -88 59 0
-62 -68 -17 0
-64 -13 27 0
3 -9 82 0
94 26 59 0
-56 -14 -107 0
56 12 57 0
-84 -4 105 0
-33 -40 -64 0
93 -53 94 0
39 -106 67 0
-105 19 96 0
-66 -19 55 0
22 -21 15 0
-66 110 -83 0
83 -72 94 0
-83 84 -63 0
-17 -35 -29 0
-52 59 26 0
71 -105 68 0
-90 -87 11 0
88 103 -90 0
-38 -16 54 0
-47 80 42 0
18 52 47 0
59 -65 -85 0
-84 -99 80 0
-47 22 90 0
-55 57 20 0
-71 -5 74 0
101 53 36 0
-25 -47 -50 0
83 -15 -72 0
58 -12 -81 0
18 77 65 0
82 50 -14 0
31 -67 -55 0
-83 -54 2 0
54 22 68 0
107 -41 78 0
60 -47 -24 0
-34 -30 -24 0
9 -58 102 0
-53 -60 62 0
66 -64 -39 0
40 74 -58 0
105 51 19 0
-27 58 84 0
100 -23 -27 0
20 -103 100 0
-22 -70 79 0
78 76 63 0
75 -59 82 0
-69 -2 72 0
78 32 -80 0
-11 20 56 0
-34 83 33 0
10 -19 -26 0
-52 -5 -48 0
-103 8 19 0
-55 -96 -95 0
-6 -92 -71 0
-39 51 -38 0
-79 63 104 0
39 -91 -85 0
99 90 -55 0
42 38 -49 0
92 46 101 0
106 -51 -11 0
-10 -70 -97 0
-53 99 40 0
13 -27 61 0
-65 95 -106 0
72 -98 -105 0
-63 94 37 0
-103 -7 -8 0
-49 -3 -22 0
101 44 16 0
31 105 -88 0
-3 -104 -63 0
16 85 -95 0
88 52 64 0
54 -94 -50 0
60 16 -69 0
103 93 47 0
-19 -108 -71 0
-65 -50 58 0
-96 7 44 0
105 28 90 0
-67 2 82 0
-16 42 37 0
3 85 -4 0
30 93 -100 0
36 106 54 0
-49 -67 61 0
34 -101 -89 0
53 25 -28 0
34 9 -80 0
-35 108 -65 0
11 -82 -86 0
-16 -62 -51 0
32 -9 -95 0
-33 -17 -55 0
-72 105 -94 0
-53 -100 -41 0
-43 81 -67 0
32 -81 55 0
57 85 21 0
-86 46 -35 0
32 -63 45 0
90 9 51 0
60 5 12 0
-21 30 -47 0
7 -15 32 0
14 77 -85 0
-56 68 75 0
-61 57 -80 0
73 83 -11 0
64 -87 13 0
28 42 -21 0
-101 44 -43 0
-30 -19 109 0
-78 -51 60 0
-59 92 -75 0
-28 12 25 0
-54 76 94 0
73 -57 -58 0
-20 -101 -87 0
-43 -79 110 0
-91 -30 61 0
32 54 101 0
25 -35 -4 0
67 32 33 0
87 -39 54 0
45 73 84 0
-75 81 -5 0
-48 30 -23 0
-68 27 -38 0
99 -50 -25 0
6 -28 26 0
28 -78 -48 0
-81 -26 67 0
-10 103 -82 0
28 24 16 0
-44 39 -61 0
-43 -2 -63 0
-22 76 44 0
-67 -40 97 0
49 12 56 0
-84 95 -38 0
67 -22 -47 0
37 27 60 0
-44 63 87 0
-36 83 1 0
97 -19 -16 0
43 91 -64 0
-52 -39 -40 0
-57 -35 15 0
92 80 -36 0
31 107 55 0
-6 26 73 0
98 -16 57 0
-97 -13 62 0
-40 -46 -96 0
12 55 10 0
67 10 49 0
66 -39 58 0
50 -108 34 0
15 -62 -92 0
13 24 92 0
-103 35 -59 0
4 -65 25 0
-53 28 55 0
11 -76 57 0
-62 48 73 0
32 47 24 0
-39 -40 101 0
95 -36 -15 0
-72 -47 97 0
-3 -81 88 0
92 95 -24 0
-66 -49 -15 0
62 -12 79 0
-15 -23 -94 0
80 65 -71 0
35 -19 82 0
-78 -88 65 0
7 43 69 0
-78 -34 -82 0
-88 -101 59 0
-83 -27 -46 0
-62 20 -46 0
-92 -29 91 0
-32 31 67 0
88 -1 34 0
55 -7 12 0
-20 23 22 0
-106 -84 39 0
-76 -69 61 0
-108 -43 79 0
49 34 19 0
4 -46 -89 0
-68 4 -71 0
51 -91 10 0
64 99 73 0
7 -31 -50 0
103 68 -42 0
102 -9 -17 0
-10 91 70 0
45 86 -73 0
40 10 98 0
-18 62 -15 0
10 72 -107 0
-50 -23 95 0
-12 -38 -64 0
78 37 -65 0
28 -94 -106 0
-7 26 -64 0
-110 92 72 0
-48 -79 -30 0
-108 110 21 0
-16 23 -97 0
35 83 -50 0
-103 77 -17 0
5 -11 -44 0
-77 -30 -59 0
-110 -77 55 0
-29 47 -32 0
22 14 -66 0
93 -78 -42 0
-15 -53 101 0
-51 18 83 0
-63 74 -69 0
79 11 -44 0
-53 -68 50 0
87 -109 -103 0
45 -21 -63 0
6 -61 -106 0
53 -66 -20 0
38 74 70 0
66 41 -80 0
34 3 -55 0
43 -103 -65 0
11 -80 -39 0
58 -52 57 0
103 61 -63 0
26 71 -15 0
71 -91 34 0
92 -74 4 0
41 92 -44 0
68 30 98 0
-67 10 68 0
109 69 -82 0
15 -103 -70 0
104 -50 26 0
38 -110 -63 0
-28 71 87 0
-107 41 108 0
-85 -69 -83 0
-72 -40 61 0
61 58 85 0
46 -5 54 0
-54 3 66 0
15 -71 -24 0
3 -79 57 0
31 -70 -105 0
34 -91 -47 0
32 -88 -44 0
-26 11 -44 0
-43 -50 73 0
-66 -15 34 0
33 -15 -107 0
27 -70 62 0
58 -64 54 0
-109 72 -34 0
21 74 -110 0
