c Random 3-SAT instance at phase transition
c vars=221 clauses=943 ratio=4.267 seed=2
p cnf 221 943
-66 205 -61 0
-219 -176 31 0
-50 20 -129 0
-103 133 162 0
-5 -112 -139 0
137 -208 2 0
-193 179 -194 0
184 -142 -161 0
13 125 -69 0
147 190 -163 0
-26 38 -140 0
-188 27 -149 0
-157 31 -100 0
-138 199 -76 0
160 -204 174 0
80 -166 47 0
-156 110 -126 0
-203 -141 201 0
182 -29 63 0
209 19 -149 0
-76 -118 -184 0
177 78 -31 0
98 -189 -187 0
-109 -44 -76 0
-221 59 209 0
-6 42 -142 0
195 181 -213 0
202 -200 1 0
-83 -217 155 0
203 -191 -20 0
-208 12 162 0
60 -104 -165 0
-127 -195 9 0
-118 20 -91 0
213 144 -102 0
-142 77 -114 0
171 212 116 0
-211 111 33 0
33 -47 -79 0
22 143 -162 0
85 62 166 0
129 -191 -41 0
168 87 -123 0
134 71 65 0
-187 -79 76 0
-179 132 -153 0
-194 -134 24 0
-46 163 102 0
-120 -124 -112 0
-163 -189 -161 0
-136 -212 -54 0
46 -116 -33 0
33 72 38 0
-205 18 19 0
-203 138 44 0
197 63 9 0
-145 5 121 0
44 -205 -190 0
47 -203 -197 0
-199 154 -116 0
-211 12 -111 0
-139 -76 -142 0
5 -160 -219 0
93 119 36 0
175 46 25 0
63 156 -167 0
115 121 167 0
5 182 132 0
161 -142 173 0
175 33 -14 0
-146 -106 109 0
-45 75 182 0
45 136 -110 0
-100 131 115 0
-70 -179 -82 0
-11 -25 85 0
211 150 105 0
-106 62 81 0
132 219 -9 0
155 57 172 0
-81 -142 104 0
-65 181 -70 0
76 4 87 0
41 -74 -202 0
-81 -220 112 0
-195 7 93 0
-43 138 -161 0
25 -100 -55 0
119 -76 -60 0
-212 101 -126 0
-84 150 -89 0
-70 -35 130 0
-154 -30 -28 0
198 -179 75 0
126 -166 -101 0
128 -101 -202 0
131 56 -109 0
55 -62 -41 0
-7 -187 94 0
74 -16 204 0
-216 -206 170 0
-78 -122 52 0
-132 -114 150 0
-108 -129 -183 0
-81 -32 -63 0
-171 116 195 0
-60 183 141 0
14 -132 -71 0
153 -150 29 0
-212 -111 168 0
-23 -206 151 0
-209 176 -144 0
-210 -43 80 0
11 167 10 0
200 122 118 0
-52 -196 -97 0
-194 -70 -215 0
132 -21 -124 0
197 89 56 0
219 -116 71 0
-114 49 110 0
185 -149 -96 0
-149 152 -130 0
187 145 -43 0
-8 102 -189 0
-181 -30 -141 0
-19 199 184 0
-148 66 62 0
-18 37 -59 0
-153 -150 181 0
-52 -9 25 0
79 -51 97 0
109 67 138 0
-5 -155 163 0
108 220 -81 0
197 -1 103 0
152 -27 162 0
-12 -220 -21 0
-147 47 -74 0
20 9 -121 0
-27 104 -109 0
-182 -84 -1 0
174 60 -98 0
103 23 56 0
-82 148 -144 0
-150 -74 -161 0
-3 -18 74 0
-15 189 45 0
114 17 -177 0
-10 -13 -205 0
205 127 -172 0
-207 -34 22 0
111 -45 -147 0
21 181 137 0
-172 -150 -176 0
-200 -119 -141 0
-135 -1 27 0
76 135 31 0
118 126 102 0
119 127 -31 0
182 40 204 0
-48 -90 218 0
218 194 -120 0
2 -134 78 0
-29 144 128 0
79 -55 33 0
49 -156 -41 0
139 73 -184 0
143 -123 103 0
-88 -39 -38 0
-185 159 116 0
-159 -93 76 0
-138 10 -133 0
174 -3 46 0
110 14 7 0
141 90 196 0
-87 196 185 0
175 81 135 0
-138 47 -114 0
-207 65 127 0
-112 -217 170 0
-147 111 -170 0
120 94 157 0
-33 -162 -124 0
-20 187 76 0
-72 115 -184 0
-208 -55 -109 0
10 19 -44 0
-145 -213 -37 0
82 55 -1 0
-132 140 145 0
95 154 100 0
42 -112 -25 0
-141 220 123 0
221 157 -14 0
-127 68 -180 0
184 -88 -161 0
166 -107 152 0
-107 149 64 0
-131 -42 178 0
118 -108 181 0
126 -155 87 0
71 22 198 0
219 -121 123 0
34 175 -130 0
155 194 -77 0
-58 215 -147 0
97 -148 -204 0
142 -92 -209 0
128 106 189 0
141 161 194 0
41 -205 152 0
-35 31 204 0
-193 181 170 0
23 201 -169 0
-59 -88 206 0
-159 -110 -15 0
61 -158 201 0
-42 -199 -187 0
89 -82 60 0
190 -103 207 0
-213 -218 127 0
-55 -144 -179 0
96 179 -186 0
-154 -28 -214 0
-19 -97 -105 0
-173 95 50 0
28 -168 -152 0
-117 -198 40 0
166 -113 -66 0
-214 -132 -219 0
-131 90 137 0
78 -1 188 0
93 120 -124 0
13 -82 -166 0
108 -55 205 0
55 -7 173 0
-166 19 -133 0
-131 142 -121 0
170 60 50 0
52 211 -168 0
-30 -72 -163 0
-95 201 -100 0
-62 -130 34 0
131 161 -182 0
120 90 15 0
-44 10 -220 0
46 70 -50 0
-81 -146 -128 0
111 -8 211 0
-92 193 -1 0
212 178 127 0
60 142 -56 0
177 189 72 0
-46 12 -161 0
58 -65 -97 0
79 194 -153 0
30 -107 162 0
-211 -203 -96 0
194 -113 -26 0
81 132 -112 0
46 -121 -34 0
-86 -11 -161 0
174 -100 58 0
69 -86 114 0
162 -175 -179 0
-78 -133 5 0
-32 189 -161 0
146 122 156 0
137 -170 -90 0
-191 121 89 0
217 55 -72 0
90 -13 82 0
-102 -36 115 0
-122 -130 -14 0
18 107 -7 0
-41 -196 9 0
209 -148 -85 0
154 -18 -217 0
-1 -110 200 0
11 -166 -66 0
92 19 71 0
-26 171 36 0
-150 -148 154 0
61 -120 -26 0
147 29 178 0
178 -199 -88 0
11 -102 -142 0
-30 -213 62 0
35 139 -7 0
126 -2 144 0
93 -197 -60 0
-29 -130 -20 0
-24 201 215 0
-200 -131 -39 0
20 -90 -102 0
184 39 25 0
100 -28 83 0
158 -50 151 0
-166 127 124 0
-32 -120 83 0
-13 -119 49 0
-25 -17 59 0
69 17 -36 0
157 118 79 0
177 14 8 0
-107 -88 -141 0
131 -150 -109 0
-95 -201 -159 0
2 -197 -175 0
77 57 -99 0
116 173 -85 0
-55 104 -81 0
57 120 -28 0
177 -18 -65 0
125 43 9 0
-36 -166 195 0
-58 148 213 0
-31 -68 -19 0
-28 -163 9 0
45 133 -181 0
77 10 -29 0
123 -148 3 0
172 207 -87 0
212 -75 -63 0
-1 96 -143 0
-56 -71 -26 0
103 15 154 0
-42 -154 -162 0
61 41 90 0
-57 179 -94 0
-95 76 -209 0
-21 -89 85 0
-67 8 -105 0
-110 170 -115 0
77 -17 122 0
30 -62 -99 0
116 101 -94 0
81 218 -195 0
104 -49 -37 0
-36 -180 -177 0
-141 -219 -198 0
-176 -6 19 0
-10 -134 -210 0
-117 109 150 0
94 70 164 0
-17 -113 209 0
-195 114 53 0
132 -89 -199 0
111 163 -217 0
-46 -48 178 0
-162 210 -160 0
-91 -19 71 0
65 -170 -118 0
-75 -105 48 0
-203 200 -190 0
33 105 -66 0
-151 -173 35 0
-133 45 78 0
42 220 168 0
-82 -166 -89 0
-51 -49 -170 0
105 -32 111 0
-131 170 29 0
28 124 101 0
210 53 -70 0
-40 -32 154 0
15 -21 -192 0
189 -183 -27 0
-92 123 67 0
-19 182 -132 0
45 62 -154 0
198 126 207 0
-94 50 -206 0
-80 -94 -78 0
-16 13 118 0
129 62 101 0
212 -208 -218 0
187 91 180 0
7 -38 -170 0
170 207 -184 0
68 -143 -205 0
-99 14 175 0
26 85 -180 0
22 -213 62 0
125 -148 -24 0
-221 190 14 0
124 -205 -168 0
-152 -162 -202 0
-27 -8 -114 0
14 113 200 0
-155 43 -150 0
-202 159 160 0
21 207 -69 0
-134 -177 212 0
-190 -112 -203 0
61 -100 206 0
-130 192 176 0
130 -120 -202 0
-52 -120 81 0
123 -203 -205 0
-205 217 -140 0
131 -2 -149 0
-156 197 71 0
101 208 142 0
-58 -172 -202 0
-164 -200 127 0
178 129 -52 0
-25 -54 -156 0
33 -147 -22 0
-107 203 -176 0
-191 153 -203 0
149 -175 -24 0
-53 212 -84 0
-208 37 -25 0
175 -181 94 0
52 -80 185 0
-59 -129 -162 0
-1 199 209 0
-137 -158 -12 0
-13 176 -20 0
6 25 -7 0
96 185 103 0
-205 -125 2 0
-43 -96 178 0
-111 77 61 0
-41 76 -21 0
-86 -213 73 0
186 42 -128 0
-110 -84 -54 0
-181 45 89 0
-64 -5 120 0
-143 183 57 0
-43 -124 24 0
44 129 -171 0
74 -69 115 0
32 19 85 0
171 121 -83 0
-52 210 62 0
-189 75 -202 0
203 56 -42 0
6 117 -1 0
129 47 -123 0
-11 -7 -88 0
42 -67 46 0
-43 156 37 0
193 58 -129 0
148 216 176 0
116 -117 -6 0
-67 138 -203 0
-2 26 -24 0
-203 98 -7 0
203 110 -201 0
13 -106 201 0
75 -24 -206 0
34 178 -164 0
47 137 -18 0
-215 -169 -50 0
2 -205 -5 0
-172 59 76 0
-25 102 57 0
-194 -52 -164 0
139 187 29 0
114 131 209 0
-151 -145 213 0
133 161 -1 0
121 -101 54 0
-61 -11 30 0
-114 -89 -154 0
-69 107 109 0
-73 197 184 0
83 19 105 0
-163 -14 182 0
-57 -43 -74 0
-35 -55 36 0
186 -98 176 0
-221 138 101 0
-5 -10 122 0
142 -143 -100 0
178 54 205 0
-24 -146 202 0
-132 184 -46 0
-181 -194 -20 0
-166 174 -132 0
182 -110 2 0
101 34 185 0
-107 28 -181 0
27 -137 -185 0
168 149 -142 0
-42 -19 167 0
191 -70 197 0
-55 167 154 0
-84 118 75 0
5 45 -81 0
28 126 -49 0
-163 165 -187 0
171 -53 61 0
104 189 80 0
221 110 -135 0
189 107 -77 0
154 -176 -73 0
-84 -12 16 0
100 -24 -137 0
-113 -61 -144 0
169 -118 -73 0
-139 -2 69 0
-104 110 -56 0
8 55 124 0
36 -107 141 0
134 -165 218 0
70 -136 60 0
94 -9 -19 0
-196 -89 -24 0
-185 -188 201 0
83 142 211 0
-6 37 139 0
-87 -129 115 0
-187 146 4 0
-212 -144 -66 0
-18 -4 107 0
-128 -142 -187 0
135 42 -189 0
-179 3 -198 0
95 208 -175 0
121 -140 -168 0
199 42 138 0
167 -102 -72 0
62 4 -207 0
-14 141 3 0
144 206 165 0
140 -205 -141 0
212 221 207 0
-207 -140 -128 0
110 76 -6 0
-33 2 -69 0
-8 -20 -186 0
-128 -190 -194 0
148 -49 -217 0
-183 -60 -81 0
-36 -124 -59 0
-115 123 -183 0
-129 -15 208 0
-85 62 -54 0
-129 17 44 0
211 -48 171 0
93 -16 -209 0
-125 -98 -112 0
56 -108 -153 0
82 194 -102 0
160 217 188 0
-17 209 -110 0
12 66 41 0
27 -209 60 0
82 132 88 0
43 -65 217 0
-67 86 -103 0
-183 -139 -175 0
-163 39 42 0
129 -54 77 0
-186 -95 -131 0
-163 171 21 0
-21 -152 -210 0
-84 -97 -179 0
-182 -98 -207 0
-163 -94 4 0
88 171 27 0
12 -180 171 0
-72 -202 175 0
3 -51 79 0
162 -180 -198 0
157 -8 -16 0
-171 210 -110 0
-9 -113 -189 0
134 -111 6 0
80 -86 102 0
-11 38 20 0
-30 -36 35 0
-125 43 79 0
-51 -71 -116 0
65 -140 205 0
101 156 -98 0
139 -145 219 0
-36 -162 -221 0
77 -56 193 0
-6 -35 -18 0
219 -122 34 0
-188 -17 -25 0
197 -128 -96 0
101 -185 27 0
-193 159 48 0
-189 -180 -167 0
24 137 -217 0
-44 -125 169 0
-201 90 -65 0
153 -165 148 0
-76 -164 9 0
-73 52 -64 0
9 189 40 0
-172 -107 112 0
95 182 -23 0
25 -169 172 0
-190 191 -109 0
71 -32 184 0
-167 204 -75 0
-174 17 140 0
-216 -177 142 0
-126 103 176 0
14 -147 -196 0
-102 58 -126 0
-129 103 -219 0
-83 -57 -191 0
-94 97 -77 0
48 177 18 0
-124 -114 67 0
-97 -52 111 0
207 -119 56 0
153 -21 -211 0
-197 111 41 0
51 117 196 0
-84 89 118 0
93 -167 60 0
178 -9 6 0
-103 -17 147 0
33 11 -121 0
82 -149 -69 0
-64 157 33 0
-186 -40 -118 0
141 -161 123 0
-29 22 -51 0
145 206 197 0
141 81 -3 0
-32 -91 -14 0
153 -197 -220 0
89 49 -146 0
-145 -63 182 0
64 111 -125 0
151 192 -104 0
194 45 87 0
-132 57 -133 0
2 -127 56 0
-37 216 6 0
78 145 -52 0
-17 212 -77 0
-149 116 164 0
-195 -173 -175 0
115 190 192 0
161 195 88 0
195 207 -116 0
125 53 161 0
127 -45 -101 0
-171 -4 -188 0
20 2 -144 0
76 198 -133 0
127 -45 46 0
-125 83 101 0
77 183 -217 0
-218 135 107 0
199 150 88 0
-30 175 -93 0
-3 -181 -165 0
187 165 -144 0
-96 164 130 0
-65 -2 -36 0
34 -124 -69 0
-172 -192 -193 0
-81 55 40 0
41 -84 -76 0
-104 -174 169 0
150 -90 -37 0
-30 -7 58 0
47 -181 170 0
114 -211 37 0
-28 193 -121 0
-33 -149 -17 0
-138 112 153 0
198 -82 92 0
-161 213 96 0
-36 29 82 0
107 167 -15 0
-157 142 -212 0
-56 -151 -6 0
-76 -148 -85 0
-195 -89 6 0
43 -193 -151 0
100 -123 110 0
-176 152 89 0
-103 -92 -205 0
123 -34 148 0
122 97 216 0
-171 -194 -41 0
199 94 115 0
-89 50 133 0
218 -29 23 0
203 -46 51 0
185 179 163 0
189 173 42 0
82 174 -12 0
41 -212 193 0
-178 -69 158 0
145 -166 -184 0
-11 218 -3 0
-118 1 -22 0
-192 -207 -23 0
98 -205 -207 0
133 -171 -24 0
-48 -54 191 0
-28 83 -124 0
199 215 98 0
-112 174 -3 0
4 -201 158 0
-138 198 -156 0
38 124 79 0
-204 178 6 0
98 -170 -89 0
-84 93 -46 0
90 -196 54 0
141 -81 -2 0
-217 19 -121 0
-202 163 -2 0
32 -75 -55 0
34 -148 212 0
-167 -35 216 0
139 41 114 0
-93 -128 -73 0
-176 -130 -201 0
123 52 -128 0
-28 129 123 0
204 -71 -27 0
-120 -28 -180 0
210 -158 97 0
30 -114 -124 0
189 156 -216 0
-51 -169 -23 0
89 93 23 0
-161 134 165 0
221 -142 -51 0
-218 187 -184 0
-144 -129 148 0
-89 -31 -130 0
220 -38 -134 0
57 195 -16 0
-134 6 159 0
-154 132 -214 0
-81 53 -133 0
-211 95 -190 0
-59 -139 -36 0
-92 7 12 0
176 -179 221 0
68 -96 85 0
-147 16 -112 0
198 104 214 0
-74 161 -156 0
153 -171 -72 0
-152 150 49 0
12 -125 -151 0
-186 -6 157 0
93 -159 200 0
97 -167 -216 0
-65 187 -182 0
-194 -9 -55 0
-88 -143 -8 0
212 133 -189 0
-29 181 60 0
80 -133 60 0
93 -120 -90 0
214 -129 57 0
177 -42 -34 0
-195 -178 44 0
142 -197 -92 0
-26 47 95 0
-64 191 10 0
140 44 198 0
51 154 -190 0
-221 33 85 0
-63 -55 214 0
156 -5 90 0
51 -136 -58 0
-153 -196 -51 0
206 174 64 0
-169 151 148 0
-174 101 -99 0
174 -214 -55 0
-18 -55 -107 0
-92 -59 -179 0
54 144 128 0
21 -98 159 0
156 70 -136 0
-41 24 -98 0
-39 -192 41 0
-59 12 117 0
-33 -142 213 0
-24 -134 188 0
175 -6 50 0
80 -6 -214 0
-76 177 -116 0
-94 -62 49 0
-127 177 -31 0
46 71 203 0
200 128 -169 0
39 -185 34 0
-35 -129 -216 0
-107 -8 131 0
50 -152 -131 0
116 144 -19 0
128 -160 -49 0
-103 121 57 0
213 -16 133 0
203 -120 -166 0
78 30 -45 0
171 202 90 0
117 -152 -95 0
172 -21 188 0
-192 67 148 0
-205 -141 149 0
117 -76 86 0
58 221 -25 0
139 -58 -135 0
-159 -219 61 0
96 99 -46 0
-25 165 176 0
139 191 -212 0
-46 -17 -77 0
-218 214 -124 0
-47 42 76 0
-99 107 59 0
-195 152 -121 0
59 -217 -48 0
25 210 124 0
19 27 -162 0
-54 -2 -26 0
53 22 -87 0
-154 85 -55 0
144 65 17 0
54 -179 165 0
-182 -220 154 0
-181 157 127 0
144 133 218 0
105 71 -196 0
24 96 71 0
196 113 -217 0
-78 -79 90 0
104 29 68 0
-1 -216 160 0
19 142 -158 0
-13 97 86 0
-102 168 46 0
-30 46 -214 0
-111 -12 -53 0
63 -64 174 0
-8 -16 -12 0
65 -209 -85 0
80 195 217 0
147 155 82 0
92 170 111 0
187 -116 165 0
92 -164 4 0
26 -161 -162 0
-169 -35 178 0
171 -216 17 0
166 71 122 0
-179 143 29 0
-64 -132 -114 0
110 157 -175 0
-121 62 -90 0
-58 55 30 0
84 114 112 0
85 -171 -23 0
-165 136 199 0
19 85 -188 0
198 217 69 0
-204 -120 123 0
-58 -92 60 0
-155 101 146 0
137 95 168 0
66 -33 159 0
17 18 -134 0
-167 47 16 0
-177 -155 189 0
-82 117 30 0
26 47 83 0
-202 -56 163 0
-147 -18 -26 0
-170 -186 -87 0
-51 119 14 0
-185 -42 150 0
128 17 92 0
-182 -68 -200 0
187 -59 -176 0
-20 130 84 0
-153 160 137 0
23 158 101 0
-123 45 -172 0
11 -157 -148 0
20 -150 -84 0
-59 -146 -51 0
-213 -196 -215 0
153 -2 -204 0
-32 103 62 0
-155 -38 -83 0
-27 -176 102 0
108 198 -183 0
-71 -88 -210 0
-130 114 46 0
-79 32 14 0
-135 206 118 0
-116 187 -72 0
-187 193 -62 0
-76 -115 62 0
-51 -111 142 0
132 -147 109 0
145 -204 160 0
-73 38 -172 0
-191 179 -139 0
-189 -130 33 0
-171 -184 157 0
43 -170 -78 0
112 -62 -99 0
-194 14 -40 0
40 185 104 0
1 194 -168 0
100 114 -118 0
141 -52 -147 0
-107 -104 36 0
113 -67 195 0
13 158 -106 0
35 -134 -126 0
195 -101 -104 0
-28 203 190 0
-73 -159 77 0
-124 -53 -78 0
-1 -132 -216 0
123 153 -151 0
-22 164 -55 0
-80 -81 -176 0
38 -95 -52 0
-174 -20 -65 0
168 -97 -147 0
-46 -98 22 0
-35 42 -120 0
77 15 -156 0
-85 -169 -145 0
98 -91 50 0
46 -147 41 0
