c Random 3-SAT instance at phase transition
c vars=200 clauses=853 ratio=4.267 seed=4
p cnf 200 853
-107 -17 -132 0
43 196 134 0
192 -88 -177 0
177 -198 11 0
-123 -183 -131 0
92 62 -179 0
-176 15 71 0
-46 -51 41 0
167 19 -154 0
69 199 -134 0
-166 -120 190 0
200 -110 -159 0
52 -48 -89 0
51 136 -175 0
42 -133 -88 0
182 -164 -168 0
-117 -31 33 0
-175 25 131 0
-94 -137 144 0
-40 50 96 0
187 -18 172 0
-41 -150 115 0
-2 183 44 0
-148 47 -183 0
-28 -119 29 0
50 -18 118 0
4 11 194 0
49 -33 -175 0
54 -103 76 0
83 10 -109 0
157 121 153 0
53 45 -6 0
-110 -65 149 0
-70 147 -56 0
-106 -35 152 0
21 75 68 0
-179 -31 -2 0
106 -186 156 0
70 58 41 0
-138 -78 -137 0
139 67 101 0
74 42 -78 0
-185 -112 -157 0
-175 -38 -25 0
167 170 -165 0
-154 -51 -82 0
-42 95 108 0
161 41 -87 0
56 -39 140 0
102 -32 23 0
32 -84 -65 0
50 64 -7 0
-199 -192 -156 0
155 -45 -138 0
-190 -87 154 0
-101 -117 -50 0
162 -128 -182 0
57 -86 127 0
-152 20 17 0
-115 94 -48 0
-158 9 54 0
64 134 -191 0
1 -81 99 0
35 -26 120 0
60 -97 -128 0
161 -141 -87 0
104 -141 96 0
-8 181 28 0
37 -126 12 0
-74 -45 142 0
98 -107 -94 0
-40 45 102 0
-147 -172 87 0
-31 -176 -136 0
22 174 -88 0
-125 96 63 0
-36 180 -107 0
-47 -153 -162 0
-165 -180 -187 0
44 -25 -125 0
-101 -3 -87 0
179 140 -105 0
-29 55 -59 0
53 -92 34 0
-111 36 -113 0
124 -163 42 0
-119 -2 130 0
-128 139 78 0
178 -122 141 0
45 -97 74 0
-43 -122 102 0
172 -13 -114 0
-4 -56 172 0
119 8 -183 0
-156 92 -186 0
-190 -49 -177 0
179 1 73 0
142 -172 63 0
-176 105 -135 0
112 -140 -160 0
-165 170 -66 0
47 -82 119 0
-187 -53 156 0
28 -23 170 0
-196 65 22 0
143 -128 5 0
-170 -200 -186 0
-43 120 35 0
48 90 84 0
-70 121 88 0
24 19 -133 0
-117 -43 -51 0
107 -102 49 0
132 47 67 0
164 -97 128 0
58 94 -167 0
41 162 -176 0
47 -85 110 0
16 -161 20 0
-10 146 -196 0
-42 -51 -4 0
-50 101 105 0
115 185 193 0
35 -90 64 0
156 21 29 0
139 -11 5 0
61 -104 -175 0
92 97 169 0
-190 -7 -179 0
-198 74 93 0
-144 -72 -170 0
43 27 186 0
105 111 -142 0
-74 -2 -111 0
-55 -43 189 0
67 149 -185 0
195 79 93 0
200 -139 141 0
-154 -106 120 0
114 76 111 0
-156 174 -162 0
59 -160 2 0
-3 -117 -180 0
-200 -120 67 0
27 186 -6 0
-97 -18 106 0
-7 164 81 0
-32 135 -138 0
-93 -160 -133 0
166 29 31 0
165 61 -36 0
4 -68 -114 0
-107 -127 -130 0
-15 185 -116 0
23 138 -156 0
120 -101 170 0
-62 175 -134 0
118 -78 -158 0
63 -68 34 0
-84 -65 51 0
169 93 -110 0
-121 34 126 0
103 165 54 0
-98 48 24 0
-110 155 -50 0
160 -67 119 0
84 -138 -140 0
-119 88 199 0
-191 27 97 0
12 -116 194 0
-114 -94 -14 0
62 164 -97 0
194 -111 -19 0
92 -193 -82 0
-136 -86 67 0
-148 3 -8 0
182 -169 163 0
196 138 -2 0
183 80 -81 0
-170 -19 132 0
78 -19 -64 0
-182 21 102 0
166 -58 -32 0
-129 107 98 0
-159 47 -98 0
-173 -41 -43 0
-64 86 -52 0
192 178 190 0
-27 -30 87 0
-178 112 -30 0
197 -16 -26 0
-15 197 -116 0
-15 117 40 0
7 -96 -92 0
-37 133 -52 0
-118 -6 146 0
42 193 -109 0
41 91 -82 0
125 72 -3 0
165 -123 -180 0
171 -74 66 0
-29 189 78 0
92 26 -11 0
-190 -176 -116 0
15 -27 147 0
38 98 -135 0
-128 -192 61 0
-77 24 194 0
-47 118 138 0
-6 -69 190 0
38 -124 117 0
142 -119 -23 0
86 99 60 0
189 -106 86 0
-119 -38 -39 0
105 161 -50 0
149 133 -129 0
-62 -191 190 0
-36 -158 168 0
-192 26 -120 0
-52 196 -30 0
-172 -67 -58 0
171 -21 159 0
-83 -139 -184 0
-141 -106 183 0
24 107 -178 0
26 131 -139 0
98 19 -198 0
-141 -180 -176 0
148 -51 126 0
85 -28 22 0
-78 -62 117 0
197 -63 -106 0
-158 -31 -15 0
156 189 151 0
-53 24 -70 0
-48 102 139 0
29 195 -118 0
-104 17 56 0
-119 82 -134 0
111 199 -135 0
155 -170 -147 0
-106 74 -157 0
64 186 -138 0
-93 -14 -157 0
81 84 161 0
172 -121 -108 0
151 160 145 0
-154 -159 -140 0
-102 -173 -96 0
-136 -3 -67 0
-1 -153 20 0
-78 163 176 0
-195 -99 -134 0
182 -116 -32 0
-143 -25 -187 0
32 137 -136 0
-120 -199 30 0
39 -163 -24 0
-47 117 144 0
-147 -25 -159 0
9 -12 4 0
-106 5 133 0
104 121 -19 0
158 -192 -17 0
72 -62 78 0
-4 51 -81 0
135 134 174 0
118 -78 -58 0
12 182 -157 0
-48 146 36 0
-154 71 142 0
149 56 75 0
-62 -6 -145 0
-11 167 162 0
-86 60 105 0
50 52 56 0
-130 -96 196 0
-147 -160 -92 0
-194 167 -55 0
-181 170 23 0
118 74 -153 0
178 -98 112 0
109 90 -175 0
76 188 102 0
1 -113 -40 0
118 32 3 0
89 -21 176 0
159 -14 -8 0
153 116 -98 0
171 98 -71 0
10 124 -65 0
-58 -39 -198 0
47 100 -4 0
-160 -103 -136 0
49 -141 194 0
15 -85 187 0
199 -78 -107 0
-31 149 -188 0
-12 17 -58 0
-66 -183 -143 0
-78 -198 -76 0
-172 -86 -140 0
27 40 195 0
-5 181 -116 0
57 181 -170 0
101 -195 142 0
94 -1 75 0
-183 82 20 0
-194 160 -183 0
-178 -20 105 0
-39 -87 89 0
14 4 -143 0
-125 29 -27 0
104 -46 -106 0
3 145 58 0
44 76 97 0
-50 187 92 0
130 -88 -124 0
123 82 -145 0
-184 135 -154 0
31 -194 -73 0
-88 152 7 0
-198 104 -176 0
28 -142 -196 0
-141 111 -43 0
23 5 14 0
144 31 124 0
-40 -32 -119 0
85 124 -121 0
-14 46 -32 0
187 -58 105 0
36 41 -155 0
-189 23 167 0
26 155 -13 0
-137 95 -49 0
-23 -116 133 0
195 181 -127 0
120 -177 156 0
-68 -142 -39 0
-101 125 12 0
-113 169 -20 0
-147 36 191 0
-6 165 192 0
181 88 28 0
127 13 -134 0
5 -199 -46 0
-112 65 -27 0
76 -127 -160 0
-181 111 -21 0
-137 92 95 0
39 -134 -85 0
-113 69 32 0
-80 -73 -10 0
37 52 41 0
-105 -109 139 0
171 1 -66 0
-102 192 -169 0
2 141 -158 0
-12 121 -181 0
-198 -166 -50 0
180 -164 151 0
-25 143 -82 0
-34 -146 -188 0
39 190 -110 0
138 1 -125 0
-88 -173 -197 0
-120 -162 73 0
-161 96 3 0
-114 41 20 0
85 -114 -37 0
-191 178 -117 0
58 10 -162 0
-85 196 18 0
137 -74 -89 0
74 167 -15 0
-77 -94 -106 0
-129 177 181 0
183 103 197 0
89 -174 -7 0
148 -113 -41 0
-129 -119 -179 0
168 154 137 0
-176 -128 134 0
66 132 188 0
-180 -79 -77 0
94 -27 -187 0
62 114 -147 0
28 -145 4 0
91 2 65 0
104 -42 166 0
141 95 -10 0
-35 158 -24 0
57 12 -2 0
86 -125 -118 0
-176 -48 -89 0
30 45 51 0
13 -127 87 0
-140 -143 91 0
-120 -131 94 0
-33 173 -61 0
-92 -62 -64 0
84 51 54 0
-49 45 193 0
134 -42 -125 0
76 -69 70 0
56 -89 156 0
-17 192 164 0
141 -158 104 0
-85 -23 -96 0
-63 97 -187 0
-139 29 -190 0
197 165 -84 0
-52 143 184 0
-178 192 -12 0
131 -50 -120 0
-78 80 10 0
-174 163 158 0
43 -53 -85 0
79 -162 89 0
-175 -6 30 0
33 93 -152 0
-64 108 -76 0
193 67 63 0
-197 -153 42 0
-22 36 105 0
179 -108 -51 0
24 -116 -74 0
-143 -63 11 0
192 -98 61 0
-110 107 -169 0
29 27 -52 0
-17 -18 98 0
-14 -89 -29 0
165 40 49 0
36 -106 39 0
-29 -196 78 0
-59 14 155 0
-12 129 -116 0
161 -111 31 0
8 149 -166 0
26 -35 161 0
-171 -88 177 0
36 -109 -69 0
-193 90 -84 0
144 -72 193 0
3 -196 -32 0
-61 98 112 0
73 46 -11 0
61 -10 136 0
-155 196 153 0
101 -172 181 0
-31 -111 -124 0
36 -133 -123 0
-124 111 38 0
-168 -157 -167 0
194 -40 -38 0
-27 93 -2 0
194 163 -172 0
85 -62 -2 0
-76 -54 185 0
13 80 83 0
-187 -169 -66 0
103 -168 -11 0
-122 157 -179 0
-132 -45 -68 0
154 12 -75 0
8 52 99 0
95 104 90 0
-26 -86 142 0
-127 196 67 0
-187 22 -42 0
-139 187 -197 0
26 133 115 0
-176 -125 -66 0
113 83 -89 0
182 -156 -122 0
-93 88 57 0
114 -180 155 0
54 50 -108 0
-119 -127 6 0
-186 47 68 0
-33 -182 -62 0
22 -74 -94 0
146 7 181 0
-90 188 165 0
121 -86 -182 0
163 185 -123 0
138 25 -146 0
25 68 -8 0
188 114 69 0
53 68 -193 0
-53 -176 -36 0
83 -62 -197 0
-152 44 -43 0
172 37 -72 0
39 46 109 0
-92 -86 26 0
163 63 158 0
118 -69 -170 0
-127 122 -39 0
-104 -45 95 0
162 -165 11 0
49 -134 29 0
-43 -49 190 0
-199 -85 -190 0
198 -125 71 0
87 181 133 0
-39 151 137 0
107 -71 46 0
95 -161 195 0
124 -102 -148 0
-69 -133 160 0
191 -6 77 0
-40 133 -96 0
-160 192 120 0
162 94 136 0
117 -199 -18 0
-155 -91 -26 0
-97 -45 -39 0
63 -7 59 0
-79 117 2 0
22 -75 74 0
-4 97 111 0
50 52 -43 0
-118 -135 187 0
-139 -114 -159 0
-40 -23 127 0
-178 -184 -24 0
-24 163 40 0
66 -118 -106 0
111 45 24 0
-45 49 -10 0
140 167 -198 0
120 184 -174 0
-167 -15 46 0
56 96 -34 0
146 -89 -164 0
-184 -156 -178 0
-45 -142 -37 0
-21 -138 -154 0
-13 67 -43 0
-14 176 -193 0
-58 -141 -129 0
-184 -111 -154 0
19 71 -178 0
-24 27 167 0
200 187 -172 0
182 176 67 0
-174 144 149 0
5 -43 162 0
-89 73 -53 0
94 -29 49 0
134 -21 187 0
161 -95 158 0
-72 88 166 0
95 61 -21 0
-17 89 197 0
125 -149 -90 0
-145 8 -113 0
101 -176 -117 0
-184 186 -146 0
185 -194 26 0
-126 -94 -5 0
23 -132 69 0
-185 129 -23 0
-36 114 -33 0
68 -167 -183 0
-67 -33 -150 0
-109 -56 151 0
-32 67 -145 0
-136 -182 -13 0
79 -70 59 0
-115 -77 188 0
-164 -193 32 0
166 -26 -113 0
-62 125 -108 0
175 147 144 0
-83 6 148 0
193 36 18 0
130 128 34 0
91 -52 129 0
-81 7 -170 0
-45 -10 -29 0
88 117 60 0
-103 -85 -27 0
182 -93 101 0
-43 125 122 0
197 -4 118 0
-157 -126 -99 0
120 -112 132 0
138 119 115 0
-15 -183 -58 0
121 177 128 0
-105 -154 139 0
-194 -167 -138 0
-158 -114 -74 0
107 99 -126 0
-65 173 -12 0
-158 59 -128 0
-176 -163 -89 0
-17 -62 8 0
155 60 -126 0
-181 -76 186 0
49 -84 -124 0
-87 43 177 0
10 132 107 0
94 181 -6 0
-79 -167 76 0
-104 -76 -48 0
128 93 -80 0
186 118 77 0
-71 141 -190 0
196 132 -50 0
60 106 170 0
29 146 126 0
-2 78 9 0
112 120 -56 0
29 67 -180 0
-57 -56 55 0
-197 194 142 0
-31 -46 -106 0
-41 -5 -16 0
-146 -37 -116 0
-42 96 -1 0
128 -74 -139 0
80 -22 -137 0
11 -107 128 0
4 -151 7 0
-153 46 -85 0
-173 -142 79 0
105 -5 100 0
-85 -116 82 0
-199 51 177 0
-14 159 -166 0
-169 -65 34 0
-128 195 -132 0
9 -34 186 0
71 128 7 0
-68 -105 198 0
50 -35 -131 0
130 -95 74 0
132 -159 10 0
-105 -156 144 0
70 37 125 0
104 -180 116 0
-108 33 133 0
95 4 -52 0
-7 88 8 0
10 -148 199 0
-85 -86 -123 0
43 -105 -42 0
-156 114 159 0
9 130 86 0
-162 -100 -43 0
82 9 30 0
-75 -20 -188 0
195 198 -90 0
-166 -101 37 0
196 -78 -36 0
-40 -152 -89 0
35 103 -63 0
147 120 183 0
24 -154 -121 0
115 145 -36 0
98 133 2 0
-106 103 -190 0
104 -42 -149 0
-58 -47 195 0
-49 134 118 0
2 -137 -189 0
5 -45 -60 0
98 106 100 0
-135 -141 173 0
-159 120 121 0
93 23 10 0
31 -185 32 0
-200 143 135 0
162 94 7 0
-183 68 61 0
22 97 -16 0
-88 117 -49 0
52 -129 -68 0
14 -138 -42 0
56 -187 5 0
80 104 -43 0
-185 165 190 0
-107 -1 -165 0
118 -194 -55 0
-8 -176 -162 0
-132 56 -106 0
-11 -109 -36 0
-153 170 177 0
-33 -87 31 0
-155 -97 43 0
26 -24 1 0
113 -167 -147 0
43 15 -65 0
-104 -156 4 0
192 167 20 0
-182 -153 186 0
131 -91 15 0
113 -122 192 0
63 -47 -173 0
-29 123 -32 0
-129 -177 78 0
117 -194 -173 0
141 -35 79 0
-15 -118 -6 0
-21 -67 -56 0
13 -115 -35 0
-21 -190 -153 0
-116 -25 -150 0
26 -128 156 0
168 -140 171 0
-152 -22 -56 0
46 190 -132 0
39 -29 139 0
-102 115 147 0
-171 -44 175 0
-151 66 -137 0
49 115 -70 0
-166 94 112 0
65 -62 -24 0
-28 171 107 0
192 140 139 0
-28 146 110 0
74 148 114 0
150 196 -24 0
69 87 155 0
-166 -55 -18 0
-142 -98 -6 0
-176 86 -80 0
91 -194 20 0
16 122 -11 0
15 -95 -17 0
77 171 -124 0
-149 -123 -117 0
93 -182 47 0
-200 -36 -10 0
-109 -183 20 0
153 168 -131 0
-151 -100 -49 0
-121 39 32 0
-185 126 117 0
-90 -56 -58 0
122 27 39 0
85 75 96 0
-97 198 -195 0
-26 132 164 0
-181 35 60 0
-195 -22 100 0
12 143 35 0
130 -142 196 0
71 -44 133 0
96 151 -76 0
86 35 55 0
-117 151 181 0
-178 -119 -157 0
-16 -198 6 0
41 38 135 0
194 128 181 0
193 -43 -45 0
-156 165 154 0
-144 -62 -172 0
159 -181 -90 0
-199 129 -172 0
19 27 -84 0
-169 124 178 0
190 -101 -108 0
16 -185 -7 0
154 118 116 0
-111 -126 -73 0
122 125 -47 0
-51 114 100 0
166 51 172 0
-99 58 -164 0
-153 -46 -167 0
34 99 -176 0
-26 -109 -68 0
109 175 -164 0
21 -29 69 0
-55 161 1 0
34 46 -69 0
125 11 86 0
152 -135 136 0
176 175 -148 0
-110 -40 188 0
-22 -191 10 0
-143 -71 -125 0
101 -149 22 0
173 -107 111 0
-9 -8 -46 0
-43 -159 1 0
194 -130 144 0
171 -195 123 0
174 -161 177 0
-102 -158 -180 0
-177 -42 -196 0
107 64 -195 0
192 -114 15 0
-108 -33 73 0
176 98 -33 0
-80 -107 48 0
122 -176 58 0
63 -60 -182 0
101 -25 -181 0
-151 -152 -21 0
92 -175 163 0
174 -47 -154 0
152 -129 51 0
-181 94 -132 0
119 -144 31 0
75 25 -169 0
-177 182 80 0
86 -125 -115 0
-42 -37 -136 0
-183 75 51 0
-198 -39 -100 0
189 137 139 0
8 1 105 0
-33 51 -101 0
104 108 59 0
-164 19 -168 0
21 119 -196 0
-177 -25 -18 0
85 -196 161 0
90 -163 20 0
23 191 37 0
174 158 -190 0
174 -12 -8 0
35 -109 -49 0
-84 22 -200 0
-170 176 -75 0
-44 167 -81 0
-88 -105 18 0
132 198 78 0
151 107 -56 0
-164 -35 -73 0
-106 6 -55 0
-157 22 75 0
-5 -41 114 0
83 -98 80 0
128 -112 40 0
-130 -142 131 0
-84 92 -70 0
-87 -2 71 0
-2 -16 48 0
110 -82 126 0
67 -87 -190 0
-44 -104 139 0
161 -191 110 0
-111 -146 187 0
