c Random 3-SAT instance at phase transition
c vars=140 clauses=597 ratio=4.267 seed=1
p cnf 140 597
116 -137 -28 0
55 -100 29 0
21 28 30 0
7 -86 -45 0
-7 18 53 0
50 67 112 0
-12 23 -119 0
27 -86 -118 0
135 97 -69 0
-134 -122 20 0
24 32 110 0
-89 -20 -25 0
-136 -36 41 0
-42 -115 47 0
94 -63 -130 0
-117 115 -30 0
-111 -85 105 0
94 -54 -97 0
129 65 94 0
-8 -80 -91 0
5 37 -125 0
-106 -29 110 0
-31 -104 -28 0
-17 58 123 0
-5 -93 -97 0
100 93 -82 0
139 91 -117 0
-40 -129 -11 0
-60 62 18 0
26 109 17 0
-52 126 38 0
-29 -72 -52 0
-48 122 -120 0
68 -137 14 0
-21 -29 -58 0
18 -15 -124 0
-32 79 20 0
103 75 -52 0
-123 84 65 0
-19 47 58 0
-91 41 10 0
-54 79 71 0
80 26 -118 0
-7 128 -91 0
-120 68 42 0
97 -45 -54 0
59 127 -112 0
-45 -52 63 0
53 -62 86 0
-40 2 33 0
-125 60 -130 0
-45 -130 137 0
-110 82 111 0
123 -16 92 0
113 28 86 0
-43 -2 -137 0
1 -85 -23 0
41 -107 -121 0
56 2 -97 0
79 -88 91 0
-61 -29 27 0
-80 -7 -71 0
59 119 47 0
-128 -45 -22 0
-59 121 37 0
64 19 -23 0
126 -89 110 0
-116 114 -127 0
-91 17 -8 0
36 -2 11 0
64 108 -50 0
-113 61 -62 0
131 128 115 0
-43 -130 16 0
-34 -50 -136 0
100 41 86 0
78 -46 -51 0
-46 -131 91 0
139 53 32 0
-67 -85 75 0
125 -60 -105 0
-54 -136 -61 0
16 81 -77 0
-26 98 93 0
-74 -47 18 0
-111 134 1 0
-14 -3 124 0
119 125 -83 0
-53 -49 84 0
-4 -103 59 0
56 -133 -73 0
-27 -139 14 0
108 36 68 0
-22 42 37 0
-120 -13 66 0
23 -77 -24 0
27 38 -64 0
-75 -8 79 0
-43 6 49 0
-102 30 -97 0
-48 -8 -38 0
118 -134 18 0
-121 -113 -56 0
-78 -57 70 0
-34 17 -27 0
45 -121 13 0
128 -83 -61 0
136 4 -46 0
99 -56 -85 0
-48 -39 -78 0
-69 -2 70 0
-89 -29 -104 0
130 56 -77 0
34 116 3 0
-38 -25 127 0
-67 -9 81 0
33 115 -61 0
34 108 25 0
-30 -89 135 0
-80 35 81 0
-105 -53 -109 0
85 119 43 0
54 -50 -79 0
-47 123 93 0
120 -135 51 0
-93 57 29 0
126 -13 -106 0
-130 18 70 0
47 -9 22 0
71 78 62 0
121 -27 -30 0
-4 58 -49 0
-92 -128 36 0
51 50 -90 0
-107 13 -126 0
28 -133 35 0
-49 -89 -74 0
118 -89 -87 0
103 91 -31 0
-41 -109 -124 0
85 -83 27 0
19 82 -23 0
40 139 -110 0
28 46 127 0
-94 -88 123 0
28 108 72 0
-57 103 16 0
-88 97 -9 0
110 -119 -45 0
-40 25 112 0
-83 -108 46 0
-79 -49 -22 0
-21 -122 -59 0
-112 -67 -55 0
-67 3 30 0
40 -19 51 0
127 92 113 0
49 77 -101 0
-15 77 18 0
99 -135 -81 0
-73 26 66 0
75 1 38 0
-127 109 71 0
-40 -107 -5 0
-51 -81 115 0
-67 -120 66 0
135 86 -80 0
24 122 -113 0
132 13 109 0
30 -50 -98 0
85 79 -33 0
91 -120 -69 0
107 -36 138 0
-37 -4 115 0
41 -101 -5 0
75 -27 72 0
-136 -53 42 0
54 108 -92 0
110 36 -95 0
37 6 8 0
-27 -26 -131 0
67 -48 -27 0
-76 87 115 0
40 70 -107 0
94 38 -75 0
46 28 -112 0
67 -104 -106 0
-74 15 113 0
98 83 12 0
-130 18 125 0
-131 -69 3 0
-28 -21 86 0
140 133 60 0
-43 -38 -31 0
11 -74 -94 0
-79 -123 26 0
-51 137 94 0
62 24 -40 0
-107 -32 26 0
107 -117 93 0
-138 28 100 0
-14 -23 -75 0
-61 92 75 0
102 41 -88 0
10 8 -67 0
43 93 4 0
-66 -7 -61 0
131 113 -114 0
-139 96 110 0
124 19 -94 0
-29 -72 80 0
68 -116 -108 0
126 115 -70 0
-48 80 -68 0
-18 24 43 0
-7 -13 89 0
123 -68 -126 0
17 -34 128 0
-83 -121 21 0
100 -98 125 0
137 99 112 0
123 92 69 0
57 124 129 0
-2 30 40 0
23 -119 -4 0
-107 136 68 0
89 -112 66 0
-69 -64 37 0
-122 9 46 0
-2 24 137 0
-110 -82 73 0
9 56 -97 0
30 -114 105 0
-104 82 134 0
47 87 -102 0
-5 39 -112 0
-2 -52 113 0
-2 15 85 0
-26 -107 62 0
36 -64 41 0
-102 -38 -77 0
-45 101 -14 0
-43 -87 -3 0
-109 -41 -12 0
-21 -130 -110 0
-130 -37 30 0
-94 -112 -125 0
-4 90 -84 0
-136 -40 11 0
126 45 50 0
21 2 114 0
35 6 15 0
-27 38 131 0
-19 -72 -112 0
-40 -39 -105 0
-134 18 106 0
-52 -93 128 0
-135 31 8 0
-27 20 -92 0
38 -139 -96 0
39 -85 -138 0
-4 13 59 0
-78 83 9 0
87 -93 -74 0
-25 -15 96 0
120 -115 -11 0
-125 41 92 0
87 -45 -5 0
85 42 83 0
111 -69 126 0
-93 -49 115 0
97 64 120 0
128 60 -72 0
5 70 126 0
41 7 -36 0
-57 -48 36 0
-104 -84 -123 0
-107 105 133 0
31 -21 130 0
-78 82 -83 0
-23 28 56 0
85 67 -51 0
66 62 -17 0
48 -68 103 0
-60 -67 -62 0
-35 -76 94 0
68 -51 18 0
-138 61 140 0
-92 20 116 0
-30 130 -47 0
-45 -103 67 0
-123 -136 39 0
-7 33 93 0
20 72 -46 0
-79 33 -90 0
122 72 104 0
35 81 86 0
10 -84 50 0
49 -63 -138 0
-8 19 79 0
16 30 117 0
44 -75 -121 0
133 131 -65 0
-58 -63 -64 0
-72 45 -79 0
62 94 40 0
-139 128 -82 0
46 -19 -57 0
-60 124 -95 0
79 -101 109 0
33 21 83 0
125 -92 79 0
127 40 66 0
41 105 -91 0
104 -22 -61 0
-30 138 -49 0
4 -87 -28 0
-44 -121 -115 0
135 -128 51 0
-118 79 -58 0
-116 87 85 0
112 43 96 0
-61 8 112 0
38 -20 -107 0
-9 -97 78 0
-137 -6 100 0
63 -43 98 0
-73 -130 -59 0
5 63 4 0
-13 3 43 0
126 93 40 0
80 -76 -131 0
-118 99 -11 0
13 89 -108 0
45 -46 75 0
35 23 -106 0
51 91 88 0
98 -118 -49 0
99 -27 94 0
75 -34 -104 0
-18 8 92 0
-61 9 -45 0
48 62 -20 0
84 -45 105 0
96 131 122 0
-14 -56 46 0
-62 -75 -124 0
-16 118 130 0
57 -28 -34 0
-100 -53 61 0
-110 -17 129 0
79 -7 89 0
-101 125 -18 0
-32 -122 -34 0
-86 -95 139 0
-140 108 -57 0
-92 -73 78 0
-114 67 82 0
89 22 46 0
-4 54 62 0
-39 135 95 0
137 91 -14 0
-108 74 -16 0
-80 139 103 0
-107 -27 -81 0
128 85 -117 0
87 -117 -28 0
125 -66 -60 0
-104 -16 63 0
41 21 129 0
132 33 139 0
107 -42 -36 0
-94 -54 -108 0
68 -21 109 0
121 81 -98 0
-9 58 77 0
129 23 -58 0
34 24 76 0
-10 -19 -55 0
73 -140 65 0
-2 91 -96 0
124 -95 -112 0
132 106 -14 0
-93 97 106 0
43 -139 20 0
-82 -90 111 0
134 -81 69 0
139 -91 18 0
51 -21 100 0
-90 2 -115 0
-47 132 -82 0
42 33 69 0
-82 -35 -47 0
43 60 86 0
-140 9 -14 0
-123 104 -12 0
118 -29 21 0
108 58 6 0
-138 36 -4 0
63 -42 -4 0
37 26 36 0
76 135 17 0
26 101 3 0
69 -42 -115 0
80 -75 -83 0
60 -35 -50 0
25 124 -6 0
96 28 40 0
-130 37 32 0
-108 69 -86 0
4 -136 88 0
-48 -19 72 0
49 -40 77 0
-137 131 -30 0
25 -30 57 0
-32 115 54 0
-11 73 20 0
4 39 -8 0
-101 -41 -98 0
133 104 -78 0
9 11 59 0
20 -125 48 0
-96 -8 104 0
19 -16 80 0
-104 23 117 0
-135 117 125 0
31 -45 -34 0
82 -125 -103 0
118 -7 34 0
-95 139 -19 0
-77 61 -17 0
113 75 -100 0
18 -79 59 0
34 98 97 0
42 119 -70 0
-49 83 -5 0
109 -128 137 0
-95 -62 50 0
129 -102 27 0
78 93 -139 0
126 -114 -85 0
74 16 -46 0
-100 70 6 0
-79 77 -93 0
20 30 -76 0
-13 -41 9 0
130 104 -26 0
33 46 82 0
-105 90 115 0
25 -125 105 0
86 131 -28 0
-104 135 99 0
139 70 -53 0
75 80 65 0
23 82 -79 0
33 71 89 0
27 56 -70 0
37 28 64 0
-49 125 13 0
-6 -38 -26 0
-59 -13 18 0
109 -22 -12 0
-100 -69 26 0
-22 -7 119 0
-122 -87 45 0
-90 134 71 0
117 97 -63 0
-54 -86 43 0
-40 -126 -124 0
-110 65 -35 0
49 127 138 0
-68 -106 55 0
-73 9 -134 0
-28 35 132 0
56 139 68 0
132 10 -78 0
11 -41 39 0
-24 16 -34 0
-128 49 -6 0
-117 119 136 0
-105 7 118 0
80 16 139 0
-84 140 -123 0
-52 -1 110 0
121 -85 76 0
43 -23 122 0
-29 19 -5 0
5 11 -113 0
-26 -118 -6 0
-91 136 23 0
27 -136 86 0
67 -94 137 0
70 101 -82 0
-92 29 35 0
-103 -68 -76 0
31 -66 88 0
26 -118 99 0
94 45 -133 0
-134 -103 -4 0
-108 -52 138 0
-36 72 73 0
22 67 -55 0
65 -81 10 0
107 21 83 0
-59 -130 8 0
115 -137 79 0
44 -78 -82 0
131 -88 -108 0
-38 -49 -94 0
68 139 -125 0
114 -52 70 0
-5 -40 124 0
-88 87 49 0
113 139 30 0
-7 -52 59 0
64 -120 132 0
-52 -120 -136 0
-103 -20 134 0
91 73 -16 0
49 -43 -104 0
136 -69 -127 0
50 -48 -123 0
-30 -136 -13 0
-121 72 -61 0
126 25 132 0
-99 -133 -122 0
58 -69 56 0
51 -88 57 0
-5 3 -99 0
-49 60 -100 0
50 138 -126 0
109 -97 19 0
-77 -31 24 0
-47 45 27 0
70 -29 -72 0
26 -59 27 0
-60 99 -25 0
-85 -56 1 0
-92 -3 -91 0
-91 57 -6 0
86 114 17 0
52 119 -103 0
-41 -21 -2 0
-51 -65 37 0
-7 -128 -53 0
-62 135 -101 0
-100 -34 104 0
-67 37 50 0
26 -59 27 0
66 -20 -118 0
107 18 8 0
118 -117 -13 0
-20 -2 -139 0
84 2 50 0
-48 -60 126 0
45 -127 60 0
-22 76 92 0
36 -92 38 0
-28 59 -70 0
-106 -26 103 0
65 136 20 0
109 -12 -16 0
-91 -92 101 0
-31 -47 -97 0
-71 135 -115 0
-90 -81 1 0
35 -74 128 0
-60 -86 99 0
-1 -68 26 0
-93 -122 136 0
52 -104 133 0
-46 -140 -89 0
-140 108 -49 0
-81 60 -12 0
40 78 -81 0
124 14 -139 0
16 127 66 0
66 -85 -73 0
-70 103 23 0
-108 53 -2 0
-11 103 -31 0
55 74 6 0
72 59 -53 0
-82 -65 -135 0
11 -73 -90 0
91 -9 46 0
-69 -71 133 0
-140 51 -94 0
-5 -71 131 0
48 120 99 0
72 -97 -94 0
-54 -101 -78 0
56 -55 113 0
-89 -71 61 0
126 134 68 0
89 75 -82 0
-76 -122 20 0
