c Random 3-SAT instance at phase transition
c vars=255 clauses=1088 ratio=4.267 seed=4
p cnf 255 1088
-178 136 22 0
-159 54 250 0
188 93 -245 0
153 -172 230 0
79 37 -174 0
-167 -97 185 0
228 -7 3 0
90 50 225 0
248 -52 -113 0
24 155 -197 0
88 254 -171 0
-211 -152 242 0
186 255 -140 0
-148 -132 186 0
-17 -247 251 0
-30 255 -97 0
-112 -22 -55 0
-214 -185 69 0
-42 225 152 0
167 51 157 0
-174 -249 183 0
51 -200 63 0
189 29 -243 0
-174 152 82 0
-155 -181 8 0
106 -123 105 0
6 -229 -194 0
239 255 -139 0
-124 -22 149 0
-2 -14 91 0
63 -62 42 0
-241 69 131 0
37 105 -12 0
-131 200 154 0
51 -67 -57 0
155 140 -82 0
79 -89 187 0
224 -154 135 0
155 -115 22 0
86 172 124 0
-40 2 -54 0
-237 198 157 0
176 74 36 0
-138 -8 -176 0
206 -137 177 0
85 56 46 0
-225 -1 -196 0
120 -251 42 0
-93 -143 -15 0
126 -35 -21 0
-104 -58 139 0
-137 -233 195 0
66 123 -236 0
-178 163 82 0
-29 180 73 0
107 -249 -83 0
64 81 -9 0
-253 -244 -199 0
197 -57 -176 0
102 242 -91 0
250 -5 182 0
-252 -120 -180 0
44 22 -197 0
87 -3 219 0
-206 183 96 0
61 -15 202 0
68 111 -192 0
243 -142 122 0
-103 -126 156 0
138 -33 153 0
76 -123 -163 0
23 205 -2 0
130 201 -132 0
-19 -45 -118 0
-115 229 94 0
247 -146 59 0
186 -99 185 0
-106 164 195 0
162 -18 46 0
19 196 -39 0
-224 159 205 0
-105 -51 205 0
183 161 -87 0
-126 78 -136 0
-239 -209 -60 0
-164 -82 -213 0
166 251 -174 0
99 2 93 0
-111 -118 -146 0
250 133 139 0
70 75 162 0
-117 -43 -197 0
-46 -144 -142 0
208 54 -163 0
-114 -3 166 0
163 -177 165 0
181 -110 -40 0
-180 30 68 0
-94 228 -6 0
156 -129 -82 0
-16 -145 -115 0
-5 -71 219 0
152 10 -233 0
-199 117 -237 0
-242 -62 -225 0
228 -24 1 0
57 181 -219 0
-59 -92 224 0
-16 178 -142 0
214 -183 210 0
74 179 -59 0
223 -207 -80 0
197 -29 32 0
-90 162 188 0
179 -78 -40 0
-6 124 -116 0
-237 -107 -238 0
44 35 167 0
107 70 53 0
154 -112 25 0
24 138 -77 0
236 -149 -81 0
95 214 -136 0
44 6 60 0
41 78 -42 0
169 -149 -48 0
-101 35 -152 0
224 -214 79 0
142 140 -49 0
20 -205 26 0
-13 186 -249 0
-53 -65 -5 0
252 63 -129 0
-107 -146 -235 0
85 -44 114 0
-64 -198 26 0
50 177 152 0
116 -142 159 0
32 -171 -146 0
68 204 -43 0
-152 202 187 0
253 246 -41 0
-221 203 231 0
115 -83 -124 0
-163 127 -219 0
-198 -2 -141 0
-70 -54 241 0
-22 -85 -190 0
194 248 -100 0
-48 221 239 0
-177 -114 -86 0
13 131 -204 0
12 97 -30 0
206 -44 -141 0
-204 3 89 0
-149 229 -212 0
152 85 9 0
34 237 -7 0
-123 -23 135 0
204 -8 209 0
-69 41 -172 0
193 -77 -22 0
-16 154 78 0
64 79 159 0
-52 30 -118 0
-127 -65 190 0
-168 221 -202 0
87 167 -109 0
-10 -104 -204 0
-219 93 -232 0
-68 -174 -210 0
110 57 208 0
86 43 34 0
-107 -83 65 0
-215 197 192 0
-95 -238 -154 0
-3 26 7 0
56 21 -235 0
-100 12 144 0
-176 -171 -212 0
-152 26 116 0
-175 -178 -33 0
-112 -254 -159 0
-41 34 124 0
15 -148 247 0
-145 -120 -18 0
79 209 -123 0
247 -141 -24 0
117 -246 128 0
205 -173 -109 0
71 -188 -3 0
-176 -27 232 0
-116 203 46 0
-24 95 -158 0
-42 55 114 0
222 170 221 0
113 -68 -204 0
233 -196 -149 0
73 -74 -41 0
-164 136 124 0
-202 60 -125 0
199 -220 -52 0
249 -139 81 0
-248 -134 165 0
56 82 -75 0
245 -155 -204 0
-137 156 8 0
-160 45 -212 0
-66 181 79 0
-44 235 159 0
-236 49 122 0
159 -125 -26 0
-134 148 -15 0
-151 -237 -112 0
139 -254 117 0
104 -63 23 0
253 4 -171 0
36 -156 -229 0
238 178 -16 0
-177 -158 46 0
166 100 -31 0
-81 -186 -60 0
-212 132 188 0
-187 175 22 0
172 -102 -73 0
-77 84 164 0
-31 -247 141 0
-150 -176 246 0
-88 -177 242 0
252 48 -158 0
99 181 -152 0
234 -109 125 0
82 241 -188 0
89 -112 -49 0
-214 146 -134 0
-4 250 150 0
-40 -44 -192 0
204 216 -40 0
232 178 153 0
152 -252 -223 0
38 -63 -230 0
-199 -85 -73 0
218 -27 202 0
-105 -177 -234 0
-180 -135 233 0
-56 -34 -30 0
-148 -235 185 0
218 -16 28 0
-83 -91 -19 0
-235 208 -228 0
40 127 229 0
-64 30 175 0
-79 -149 130 0
-217 250 80 0
167 -125 -201 0
-152 -249 -199 0
-80 62 -59 0
128 -77 232 0
176 -132 -70 0
150 -171 -82 0
22 -72 -130 0
104 -170 -234 0
209 254 -172 0
197 -216 -187 0
-174 -197 135 0
-29 172 81 0
96 -145 -119 0
190 156 -187 0
-134 -67 162 0
-156 137 -45 0
-203 184 -95 0
-203 -114 -178 0
-130 -220 -123 0
-206 -173 3 0
-239 1 -194 0
182 -251 -125 0
135 -189 -223 0
-237 -148 131 0
-102 -123 215 0
182 -227 -12 0
120 -208 33 0
-37 -121 33 0
-81 149 98 0
-147 11 -60 0
-149 184 -81 0
-238 -32 -203 0
11 -15 4 0
134 -160 -6 0
16 30 132 0
111 238 -201 0
217 -231 91 0
186 -9 121 0
103 -76 -242 0
-170 -222 -122 0
99 74 -165 0
-208 15 232 0
247 145 -226 0
-19 -115 63 0
180 219 240 0
95 66 94 0
-185 -77 -171 0
226 -207 20 0
-69 77 134 0
63 23 -160 0
125 -7 -60 0
-167 147 -249 0
-213 255 -111 0
-138 95 -235 0
-244 106 -252 0
-122 166 -109 0
87 128 -192 0
223 -211 -98 0
129 83 -92 0
144 51 -229 0
45 41 3 0
113 -26 224 0
202 -17 -10 0
133 195 26 0
153 156 218 0
133 193 13 0
155 -22 -187 0
153 189 70 0
-14 -74 -238 0
-118 -232 246 0
33 167 156 0
20 223 213 0
-116 195 -187 0
4 212 95 0
-144 245 -42 0
-182 145 -118 0
-59 -96 -92 0
-109 -179 19 0
51 109 -93 0
148 -86 -216 0
217 -97 -122 0
-181 79 124 0
-96 248 115 0
-74 -26 -24 0
-247 -203 30 0
29 245 -227 0
196 151 -110 0
-172 69 -101 0
-65 -98 50 0
-84 -234 158 0
-135 -158 -116 0
73 25 82 0
123 85 114 0
117 199 -249 0
63 -112 -158 0
-243 157 -104 0
-80 177 -250 0
-52 115 142 0
-195 97 -172 0
-3 -20 -88 0
24 -19 233 0
-34 250 -11 0
9 110 188 0
236 107 138 0
112 250 118 0
-168 -63 253 0
-37 123 -16 0
-238 106 -79 0
74 133 189 0
52 198 -195 0
-114 29 213 0
32 198 -16 0
175 -121 -225 0
212 -29 -183 0
-87 166 -54 0
-146 -30 19 0
-226 198 150 0
181 -50 -244 0
-128 160 15 0
-143 -236 -215 0
190 187 46 0
-88 -7 105 0
255 21 230 0
116 223 -117 0
-22 13 250 0
-27 198 -98 0
-195 -183 15 0
-90 -46 150 0
-203 136 -121 0
145 -139 83 0
-55 -111 -170 0
-87 -41 8 0
93 12 137 0
66 52 -205 0
-138 -177 -139 0
1 84 116 0
-129 245 -215 0
-116 2 180 0
194 252 -15 0
24 -163 135 0
211 64 -94 0
-209 -192 4 0
46 -182 184 0
-252 -210 -43 0
254 129 91 0
-17 93 90 0
-82 -160 -76 0
128 -197 -32 0
217 93 -14 0
-122 -4 -127 0
-52 -26 86 0
145 -47 -110 0
-246 -3 208 0
-13 161 74 0
109 -194 108 0
70 82 -174 0
-221 -254 -94 0
66 -34 -18 0
-169 -163 -127 0
198 -31 92 0
68 113 -98 0
-222 -9 -172 0
144 52 -107 0
-152 -245 -228 0
214 196 175 0
224 13 -163 0
127 -84 -168 0
-84 230 -101 0
-136 120 -157 0
-108 205 78 0
128 225 -36 0
247 136 113 0
-220 -74 25 0
-84 192 83 0
137 64 -152 0
89 -47 14 0
-92 -56 84 0
-116 -77 224 0
-113 -74 -168 0
14 57 65 0
17 -162 111 0
179 -182 -20 0
157 -98 -153 0
-58 120 -42 0
150 122 -242 0
189 237 145 0
10 -14 -80 0
-240 -37 132 0
5 156 -74 0
53 97 -196 0
99 -206 140 0
-245 209 -11 0
201 -37 132 0
136 -108 -29 0
137 -80 -123 0
-207 177 -37 0
130 -251 -210 0
-152 66 182 0
-67 -74 -147 0
-87 -204 252 0
217 178 -212 0
228 -220 103 0
161 153 -62 0
-96 28 223 0
179 -29 231 0
-212 194 -174 0
51 17 238 0
-33 -175 52 0
-13 80 -245 0
-251 -194 53 0
-125 -27 46 0
117 228 137 0
161 -30 148 0
150 -182 -204 0
61 39 -244 0
-48 -78 140 0
170 151 37 0
-37 -157 -22 0
210 252 -67 0
-181 228 137 0
-9 -3 -62 0
85 -171 -182 0
244 108 154 0
188 -177 -60 0
-254 -73 -55 0
67 -195 164 0
-104 249 -87 0
-165 -22 216 0
-225 105 198 0
178 -138 -88 0
-246 115 -107 0
184 -91 246 0
4 -250 -40 0
-162 -252 78 0
-137 2 93 0
87 82 -53 0
10 -94 -24 0
68 -221 -127 0
90 83 -140 0
-144 216 -13 0
163 127 -119 0
48 4 -212 0
-213 -115 135 0
-48 -131 13 0
3 -101 144 0
81 207 -219 0
108 -248 78 0
-139 96 69 0
89 -16 -102 0
108 -14 -239 0
-167 -215 -137 0
-80 -214 -251 0
128 -131 51 0
-86 -28 145 0
95 -58 43 0
-17 101 -197 0
110 121 132 0
50 33 -109 0
94 -162 250 0
75 -109 211 0
-241 -54 -249 0
238 251 170 0
-169 146 -208 0
-159 -84 -247 0
144 106 -113 0
-232 -88 199 0
204 -118 -112 0
-79 145 -100 0
221 48 -68 0
-127 -190 245 0
178 -105 9 0
-12 239 -102 0
137 228 178 0
-18 189 -81 0
-251 103 -54 0
-239 -211 -82 0
110 -232 -148 0
235 157 -180 0
31 34 -186 0
31 86 -10 0
239 146 88 0
67 86 -245 0
-68 -224 -46 0
-132 -190 106 0
-186 250 -218 0
-22 18 114 0
23 -10 190 0
41 -109 29 0
248 -250 58 0
-74 72 -140 0
-20 -232 185 0
-176 238 -116 0
161 -224 184 0
95 -222 -161 0
42 60 -251 0
146 -166 144 0
-192 -242 -170 0
159 -90 190 0
48 230 169 0
-50 193 174 0
136 -91 58 0
121 -205 248 0
158 -130 -188 0
88 169 -161 0
29 -243 -8 0
-109 -50 169 0
-134 -204 245 0
-101 207 -120 0
53 149 -253 0
-249 -198 116 0
148 -124 -57 0
32 -227 80 0
-249 -236 59 0
-199 -2 106 0
101 95 -64 0
228 -15 -5 0
-145 128 30 0
89 123 -159 0
97 238 98 0
-177 145 212 0
-209 -153 -51 0
-249 -25 -165 0
-150 -180 239 0
-214 146 -186 0
-135 -66 81 0
-19 31 17 0
-180 62 77 0
-244 178 70 0
-244 239 152 0
244 -229 -212 0
164 94 71 0
-62 184 12 0
-14 -203 -194 0
-229 -36 -237 0
-195 -165 -151 0
-152 219 151 0
14 131 64 0
-179 246 30 0
180 164 -96 0
141 196 165 0
-90 226 54 0
-143 34 213 0
254 238 -219 0
102 87 232 0
-247 -42 222 0
-23 49 -6 0
115 -53 113 0
208 240 -161 0
133 -80 102 0
-176 -20 34 0
223 -225 -199 0
89 30 163 0
-79 125 -11 0
-146 -221 125 0
202 -89 -231 0
-237 -168 -62 0
224 -149 -228 0
237 185 -221 0
124 -247 33 0
-161 -120 -6 0
-115 -29 -168 0
108 -235 164 0
200 219 -46 0
27 -108 228 0
27 -155 -80 0
37 155 -172 0
104 -143 180 0
-85 185 191 0
-173 -231 -16 0
26 100 -89 0
-194 -83 -146 0
57 -55 -209 0
138 -82 16 0
35 -139 -43 0
-98 -82 51 0
71 168 105 0
138 -133 123 0
-31 -12 87 0
-71 38 -197 0
-220 128 -148 0
-221 193 215 0
245 204 129 0
76 92 35 0
-34 -84 188 0
-129 38 -18 0
155 142 148 0
-150 62 -115 0
248 -179 -160 0
-145 197 153 0
-226 -191 -22 0
11 121 -125 0
-63 -210 -135 0
59 -55 -90 0
143 -224 -160 0
-244 -207 236 0
79 -144 243 0
161 -119 -97 0
15 -247 140 0
163 -57 -195 0
21 114 189 0
78 10 -60 0
-76 160 -243 0
-97 -167 237 0
62 -106 -158 0
-111 54 225 0
-13 166 168 0
126 120 183 0
252 -149 -101 0
60 -11 -132 0
143 207 163 0
176 163 236 0
-33 -254 90 0
-21 251 -249 0
15 248 220 0
55 143 -88 0
-100 99 153 0
11 25 -202 0
71 -104 27 0
230 -170 55 0
185 -69 -168 0
247 181 238 0
-134 -46 147 0
-20 -120 139 0
-148 -15 203 0
-53 48 -122 0
132 72 -92 0
181 27 134 0
-22 -11 206 0
40 -57 219 0
-2 8 93 0
84 -108 9 0
-240 114 221 0
231 -132 51 0
37 -61 141 0
179 -227 -195 0
226 61 -171 0
211 -96 -133 0
83 43 -82 0
-249 202 -168 0
11 -43 237 0
91 163 8 0
-87 -133 252 0
-248 64 229 0
-118 78 215 0
53 -164 147 0
203 12 -107 0
-199 -183 10 0
-130 90 47 0
-29 108 -132 0
237 34 -138 0
125 -246 96 0
-29 122 15 0
249 -73 74 0
33 144 129 0
-207 -168 133 0
-21 -184 200 0
190 233 68 0
-41 -88 28 0
-82 -243 39 0
38 56 125 0
-239 -106 -210 0
252 -115 16 0
128 -47 -210 0
99 -215 -45 0
-50 -193 -113 0
45 131 237 0
227 153 233 0
-188 31 -5 0
223 228 146 0
129 221 125 0
-223 -47 134 0
29 222 -132 0
228 -71 -139 0
110 179 -43 0
182 220 -11 0
-241 -236 112 0
-77 -224 -97 0
-135 127 -161 0
-180 -158 221 0
-203 153 154 0
118 51 12 0
229 39 -235 0
-252 -85 255 0
-124 20 21 0
-14 63 -227 0
141 133 12 0
-169 -98 82 0
-169 87 -5 0
-86 -78 -113 0
41 53 49 0
-8 -155 -238 0
-110 102 -132 0
-159 -235 210 0
-42 137 1 0
-200 150 -247 0
205 -10 -224 0
249 -168 -109 0
-168 -36 -97 0
-210 -27 -255 0
-128 -221 239 0
-39 109 214 0
-55 154 -207 0
216 -14 -116 0
-197 -145 -62 0
238 165 55 0
212 -194 -132 0
5 18 245 0
-93 -8 -232 0
-87 53 167 0
-148 46 110 0
-160 94 -8 0
-220 107 87 0
226 -181 -108 0
-99 236 -180 0
247 -214 -220 0
180 -44 101 0
39 -19 -150 0
202 -189 -27 0
11 157 -16 0
169 220 26 0
-224 -111 225 0
-191 -106 244 0
163 -199 -171 0
-178 58 231 0
-100 194 27 0
-237 217 59 0
122 -254 -170 0
-154 -39 -10 0
30 193 49 0
-150 -83 -20 0
39 27 113 0
-221 -17 -29 0
-87 17 144 0
-119 -154 -173 0
174 -147 -129 0
225 -81 -112 0
140 251 -198 0
146 233 -114 0
30 -246 75 0
197 114 -77 0
70 -23 -49 0
39 124 170 0
248 -224 109 0
3 213 -116 0
35 114 20 0
44 -40 -149 0
-59 -4 -221 0
-15 56 -78 0
-149 -141 241 0
-232 59 -203 0
46 12 -222 0
-233 -26 -81 0
214 167 -215 0
-127 62 -25 0
-50 99 41 0
-45 235 -160 0
71 -237 -114 0
229 160 -155 0
-38 86 93 0
-210 118 -206 0
39 181 -151 0
-176 168 209 0
-231 44 76 0
88 -249 -67 0
130 57 64 0
-42 -26 235 0
20 204 -202 0
-169 11 97 0
192 -97 48 0
59 45 69 0
-149 192 230 0
-227 -151 -200 0
20 252 -250 0
93 -52 -28 0
51 -247 -20 0
94 189 52 0
-109 -199 -222 0
-196 -98 28 0
-219 -1 -143 0
-114 -109 -22 0
164 219 137 0
34 107 -200 0
-26 157 227 0
242 -129 -138 0
255 4 -20 0
-142 228 196 0
243 -123 -141 0
-64 -235 155 0
-79 -84 -227 0
174 -31 -65 0
20 68 -124 0
-240 125 29 0
-253 -36 -213 0
160 -43 -126 0
-153 33 138 0
-156 -138 -223 0
-131 27 36 0
99 -70 205 0
112 43 -59 0
-153 159 14 0
38 -194 -172 0
-52 214 224 0
-41 -147 -140 0
-203 74 -17 0
-12 -143 -25 0
-151 163 77 0
182 -252 127 0
6 -65 224 0
-230 -243 -212 0
-54 -203 1 0
248 -165 184 0
218 -249 156 0
-4 -220 12 0
-252 -162 -71 0
-182 -128 -200 0
-7 -187 126 0
81 -248 -187 0
-145 -19 -89 0
42 92 -197 0
125 -42 155 0
-4 -136 61 0
-155 19 -225 0
-100 80 -76 0
199 -128 -31 0
207 -192 -232 0
-196 169 213 0
243 -134 -19 0
-245 21 246 0
115 235 16 0
-230 -248 100 0
161 -46 141 0
215 -191 -79 0
-231 102 57 0
-159 59 -46 0
-140 135 -25 0
-184 -234 129 0
64 -151 -236 0
50 127 -84 0
-174 177 217 0
10 1 133 0
-42 65 -128 0
132 138 137 0
30 -110 209 0
118 -159 128 0
-48 20 -63 0
96 -144 201 0
158 177 117 0
121 189 44 0
-116 -10 103 0
-47 139 -114 0
-24 -245 -204 0
-62 -221 -46 0
28 -213 -182 0
230 -217 190 0
181 204 56 0
119 75 153 0
-183 -141 -65 0
12 -126 -4 0
-90 171 101 0
-212 52 235 0
-209 -222 35 0
95 13 147 0
-145 223 186 0
139 -125 102 0
163 -143 50 0
-166 -181 167 0
-107 117 -89 0
-111 -2 91 0
-2 -21 61 0
140 -104 160 0
85 -111 -242 0
-56 -50 -132 0
-227 62 -205 0
-248 -34 -141 0
50 60 211 0
97 -119 153 0
27 -207 160 0
-82 -184 -64 0
-15 -11 -123 0
25 -191 22 0
-225 18 -68 0
88 16 -253 0
195 154 89 0
89 112 -219 0
98 152 174 0
-2 -230 -134 0
196 -19 118 0
52 111 57 0
-99 135 -40 0
-145 213 -164 0
191 86 192 0
174 -180 -242 0
30 -235 142 0
137 -124 20 0
-155 -13 233 0
-118 -241 147 0
252 39 -175 0
-159 32 -196 0
87 -84 33 0
85 -45 70 0
-119 -113 189 0
-166 40 -6 0
-32 151 159 0
107 -48 -205 0
-76 181 67 0
44 -164 -219 0
-35 -63 -3 0
-215 97 -43 0
-17 -90 101 0
-123 -186 114 0
-11 87 -142 0
-247 205 -41 0
-162 -145 253 0
184 229 -40 0
-111 155 112 0
-248 110 -69 0
139 240 12 0
51 177 186 0
-201 -157 -55 0
-28 115 9 0
-38 76 88 0
-254 -239 -13 0
-158 58 182 0
-224 -211 -198 0
59 255 86 0
11 252 98 0
-191 -11 -95 0
-149 103 4 0
217 234 -179 0
179 55 -20 0
-53 -62 148 0
213 188 -232 0
-224 130 9 0
238 157 156 0
-150 -214 -48 0
51 -162 139 0
-11 -26 126 0
-44 -33 127 0
-55 30 210 0
-181 -44 147 0
245 70 -155 0
104 208 117 0
-177 141 -169 0
-97 -128 237 0
226 157 223 0
-83 85 212 0
-228 150 -208 0
216 -235 -99 0
230 223 -55 0
-240 23 -47 0
-86 -137 172 0
-50 227 -154 0
13 -202 -31 0
-150 102 -186 0
-88 -122 -67 0
70 -183 -53 0
-213 -148 -58 0
78 93 156 0
-59 153 41 0
97 -53 -230 0
37 -120 221 0
-82 -86 -33 0
-178 -84 -195 0
-132 -253 -19 0
136 -63 -71 0
65 220 205 0
169 -76 -50 0
244 64 -39 0
-74 113 222 0
185 -23 -251 0
91 -224 -150 0
47 -248 -226 0
-240 -218 -75 0
189 -88 -58 0
-26 153 -85 0
7 2 76 0
34 210 -197 0
29 148 130 0
109 248 -3 0
-245 -44 -249 0
173 -218 224 0
-204 60 -246 0
-107 36 51 0
-185 -2 99 0
-82 177 -237 0
20 -26 -241 0
-178 -70 -111 0
-93 232 204 0
106 178 229 0
144 147 -178 0
25 -78 143 0
-98 114 192 0
192 23 42 0
-216 -89 -183 0
249 -133 65 0
-128 8 -126 0
187 242 228 0
44 225 -207 0
-59 -178 -131 0
-3 53 92 0
-120 -188 134 0
-189 -137 -144 0
173 -172 -196 0
-7 -195 -235 0
182 -212 167 0
17 170 -82 0
-57 96 -4 0
123 -194 173 0
-163 54 -111 0
202 -150 -231 0
-25 12 -88 0
-189 187 -82 0
214 189 129 0
-51 -128 -177 0
-75 72 43 0
-162 201 244 0
-81 -121 43 0
-247 43 5 0
132 32 191 0
-140 97 192 0
-206 109 -208 0
-108 -170 220 0
62 43 -207 0
70 252 66 0
243 215 -124 0
46 -72 -77 0
70 148 121 0
-123 95 -63 0
116 -177 42 0
113 33 112 0
68 -1 99 0
-234 -171 78 0
241 231 -150 0
-146 241 225 0
